title                                   
   1.00000000000000     
     3.6346554415933752   -3.7584078736576041   -0.0690613646958617
     0.0690613646958617   -3.7584078736576041   -3.6346554415933752
     1.8621602691039705    3.7686697166355931   -1.8621602691039705
   Al   Ni
     4     4
Direct
  0.7255048254617518  0.2692621998859377  0.4631460480539655
  0.2744951745382483  0.2307378001140623  0.5368539519460348
 -0.0192621998859378  0.5244951745382483  0.0368539519460346
  0.0192621998859378 -0.0244951745382482 -0.0368539519460346
  0.7641088890684227  0.7355282271109044  0.5246863854456932
  0.2358911109315771  0.7644717728890956  0.4753136145543070
  0.5144717728890956  0.4858911109315771 -0.0246863854456931
  0.4855282271109042  0.0141088890684228  0.0246863854456931
 
  0.00000000E+00  0.00000000E+00  0.00000000E+00
  0.00000000E+00  0.00000000E+00  0.00000000E+00
  0.00000000E+00  0.00000000E+00  0.00000000E+00
  0.00000000E+00  0.00000000E+00  0.00000000E+00
  0.00000000E+00  0.00000000E+00  0.00000000E+00
  0.00000000E+00  0.00000000E+00  0.00000000E+00
  0.00000000E+00  0.00000000E+00  0.00000000E+00
  0.00000000E+00  0.00000000E+00  0.00000000E+00
