title                                   
   1.00000000000000     
    -3.8549175190863600   -1.6863721024098122   -1.8717252199170240
    -1.8717252199170240   -1.6863721024098122   -3.8549175190863600
     1.8327650767825991   -3.2195178816456722    1.8327650767825991
   Al   Ni
     2     2
Direct
  0.9915038373599074  0.9915038373599074  0.9416107851175468
  0.7584961626400926  0.7584961626400926  0.3083892148824532
  0.4980417578500536  0.4980417578500536  0.4477332798859450
  0.2519582421499464  0.2519582421499464  0.8022667201140550
 
  0.00000000E+00  0.00000000E+00  0.00000000E+00
  0.00000000E+00  0.00000000E+00  0.00000000E+00
  0.00000000E+00  0.00000000E+00  0.00000000E+00
  0.00000000E+00  0.00000000E+00  0.00000000E+00
