title                                   
   1.00000000000000     
    -3.8549175190863600   -1.6863721024098122   -1.8717252199170240
    -1.8717252199170240   -1.6863721024098122   -3.8549175190863600
     1.8327650767825991   -3.2195178816456722    1.8327650767825991
   Al   Ni
     2     2
Direct
 -0.0084961626400918 -0.0084961626400918 -0.0583892148824567
  0.7584961626400916  0.7584961626400916  0.3083892148824567
  0.4980417578500551  0.4980417578500551  0.4477332798859448
  0.2519582421499449  0.2519582421499449  0.8022667201140554
 
  0.00000000E+00  0.00000000E+00  0.00000000E+00
  0.00000000E+00  0.00000000E+00  0.00000000E+00
  0.00000000E+00  0.00000000E+00  0.00000000E+00
  0.00000000E+00  0.00000000E+00  0.00000000E+00
