title                                   
   1.00000000000000     
     0.0000000000000000   -3.7146283364068418    0.0000000000000000
    -3.3740228165968928    0.0000000000000000    0.0000000000000000
     0.0000000000000000    0.0000000000000000   -7.4904288278214723
   Al   Ni
     3     5
Direct
  0.5000000000000000  0.5000000000000000  0.4822480415781627
  0.5000000000000000  0.5000000000000000  0.0177519584218373
  0.0000000000000000  0.5000000000000000  0.7500000000000000
  0.5000000000000000  0.0000000000000000  0.7500000000000000
  0.0000000000000000  0.0000000000000000  0.5002597362492078
  0.0000000000000000  0.5000000000000000  0.2500000000000000
  0.5000000000000000  0.0000000000000000  0.2500000000000000
  0.0000000000000000  0.0000000000000000 -0.0002597362492079
 
  0.00000000E+00  0.00000000E+00  0.00000000E+00
  0.00000000E+00  0.00000000E+00  0.00000000E+00
  0.00000000E+00  0.00000000E+00  0.00000000E+00
  0.00000000E+00  0.00000000E+00  0.00000000E+00
  0.00000000E+00  0.00000000E+00  0.00000000E+00
  0.00000000E+00  0.00000000E+00  0.00000000E+00
  0.00000000E+00  0.00000000E+00  0.00000000E+00
  0.00000000E+00  0.00000000E+00  0.00000000E+00
