title                                   
   1.00000000000000     
    -5.6843146160304663   -3.2372524912364353    1.9143200548838151
    -5.6843146160304663   -3.2372524912364353   -1.9143200548838151
     3.7921816116340730   -3.2473680122383666    0.0000000000000000
   Al   Ni
     4     6
Direct
  0.4027870458249856  0.4027870458249856  0.6908048633514082
  0.1920269390280274  0.1920269390280274  0.1366840315800412
  0.0079730609719754  0.0079730609719754  0.4633159684199602
  0.7972129541750101  0.7972129541750101  0.9091951366485932
  0.3935807610661152  0.3935807610661152  0.1797086341173416
  0.2070896210237303  0.2070896210237303  0.6411108955050170
 -0.0070896210237274 -0.0070896210237274 -0.0411108955050153
  0.8064192389338809  0.8064192389338809  0.4202913658826596
  0.6000000000000014  0.6000000000000014  0.7999999999999972
  0.6000000000000014  0.6000000000000014  0.2999999999999972
 
  0.00000000E+00  0.00000000E+00  0.00000000E+00
  0.00000000E+00  0.00000000E+00  0.00000000E+00
  0.00000000E+00  0.00000000E+00  0.00000000E+00
  0.00000000E+00  0.00000000E+00  0.00000000E+00
  0.00000000E+00  0.00000000E+00  0.00000000E+00
  0.00000000E+00  0.00000000E+00  0.00000000E+00
  0.00000000E+00  0.00000000E+00  0.00000000E+00
  0.00000000E+00  0.00000000E+00  0.00000000E+00
  0.00000000E+00  0.00000000E+00  0.00000000E+00
  0.00000000E+00  0.00000000E+00  0.00000000E+00
