title                                   
   1.00000000000000     
     1.8446852751117953   -3.6791372278965744    1.8247579960303986
    -3.6791372278965744    1.8446852751117953    1.8247579960303986
    -1.7182744585964780   -1.7182744585964780   -3.5342869839718318
   Al   Ni
     2     4
Direct
  0.6668495255588339  0.3331504744411661 -0.0000000000000000
 -0.0001828588921696  0.0001828588921696 -0.0000000000000000
  0.8333333333333357  0.1666666666666643  0.5000000000000000
  0.3333333333333357  0.6666666666666643 -0.0000000000000000
  0.1677944052892883  0.8322055947107116  0.5000000000000000
  0.4988722613773761  0.5011277386226241  0.5000000000000000
 
  0.00000000E+00  0.00000000E+00  0.00000000E+00
  0.00000000E+00  0.00000000E+00  0.00000000E+00
  0.00000000E+00  0.00000000E+00  0.00000000E+00
  0.00000000E+00  0.00000000E+00  0.00000000E+00
  0.00000000E+00  0.00000000E+00  0.00000000E+00
  0.00000000E+00  0.00000000E+00  0.00000000E+00
