title                                   
   1.00000000000000     
     3.7585597597133416    3.1969465600329374    3.7585597597133416
    -3.7585597597133416    3.1969465600329374   -3.7585597597133416
    -1.9467996645378989   -0.0000000000000000    1.9467996645378989
   Al   Ni
     3     5
Direct
  0.1120289311718693  0.3879710688281307  0.5000000000000000
  0.3750000000000000  0.1250000000000000  0.5000000000000000
  0.6379710688281305  0.8620289311718695  0.5000000000000000
  0.0148426143874649  0.0144137751961097 -0.0000000000000000
  0.2644137751961096  0.7648426143874649  0.0000000000000000
  0.4855862248038904  0.4851573856125351  0.0000000000000000
  0.8750000000000000  0.6250000000000000  0.5000000000000000
  0.7351573856125351  0.2355862248038903  0.0000000000000000
 
  0.00000000E+00  0.00000000E+00  0.00000000E+00
  0.00000000E+00  0.00000000E+00  0.00000000E+00
  0.00000000E+00  0.00000000E+00  0.00000000E+00
  0.00000000E+00  0.00000000E+00  0.00000000E+00
  0.00000000E+00  0.00000000E+00  0.00000000E+00
  0.00000000E+00  0.00000000E+00  0.00000000E+00
  0.00000000E+00  0.00000000E+00  0.00000000E+00
  0.00000000E+00  0.00000000E+00  0.00000000E+00
