title                                   
   1.00000000000000     
    -0.0000000000000000   -1.9302977529037584   -1.9302977529037584
    -3.6221243412298025    0.0000000000000000    0.0000000000000000
     0.0000000000000000    5.5085153273835292   -5.5085153273835292
   Al   Ni
     3     3
Direct
  0.5000000000000000  0.5000000000000000  0.1666666666666643
  0.0000000000000000  0.0000000000000000 -0.0310878931853292
  0.0000000000000000 -0.0000000000000000  0.3644212265186650
  0.5000000000000000  0.5000000000000000  0.4975904322019213
  0.5000000000000000  0.5000000000000000  0.8357429011314144
 -0.0000000000000000  0.0000000000000000  0.6666666666666643
 
  0.00000000E+00  0.00000000E+00  0.00000000E+00
  0.00000000E+00  0.00000000E+00  0.00000000E+00
  0.00000000E+00  0.00000000E+00  0.00000000E+00
  0.00000000E+00  0.00000000E+00  0.00000000E+00
  0.00000000E+00  0.00000000E+00  0.00000000E+00
  0.00000000E+00  0.00000000E+00  0.00000000E+00
