title                                   
   1.00000000000000     
     0.0306439191243462   -1.9298009293493708   -4.9125225204905227
    -1.9298009293493708    0.0306439191243462   -4.9125225204905227
     3.8595112702368426    3.8595112702368426   -0.0215849924625043
   Al   Ni
     3     3
Direct
  0.6816831807757708  0.6816831807757708  0.8393878716599374
  0.9712401923398417  0.9712401923398417  0.9747424794323649
  0.6681731994504858  0.6681731994504858  0.3366449899559001
  0.3353739028516216  0.3353739028516216  0.1817144544289491
  0.0167049551414706  0.0167049551414706  0.5211634016529132
  0.3268245694408023  0.3268245694408023  0.6463468028699424
 
  0.00000000E+00  0.00000000E+00  0.00000000E+00
  0.00000000E+00  0.00000000E+00  0.00000000E+00
  0.00000000E+00  0.00000000E+00  0.00000000E+00
  0.00000000E+00  0.00000000E+00  0.00000000E+00
  0.00000000E+00  0.00000000E+00  0.00000000E+00
  0.00000000E+00  0.00000000E+00  0.00000000E+00
