title                                   
   1.00000000000000     
     0.0306439191243462   -1.9298009293493708   -4.9125225204905227
    -1.9298009293493708    0.0306439191243462   -4.9125225204905227
     3.8595112702368426    3.8595112702368426   -0.0215849924625043
   Al   Ni
     3     3
Direct
  0.6816831807757724  0.6816831807757724  0.8393878716599356
 -0.0287598076601548 -0.0287598076601548 -0.0252575205676352
  0.6681731994504859  0.6681731994504859  0.3366449899558987
  0.3353739028516218  0.3353739028516218  0.1817144544289462
  0.0167049551414688  0.0167049551414688  0.5211634016529141
  0.3268245694408057  0.3268245694408057  0.6463468028699404
 
  0.00000000E+00  0.00000000E+00  0.00000000E+00
  0.00000000E+00  0.00000000E+00  0.00000000E+00
  0.00000000E+00  0.00000000E+00  0.00000000E+00
  0.00000000E+00  0.00000000E+00  0.00000000E+00
  0.00000000E+00  0.00000000E+00  0.00000000E+00
  0.00000000E+00  0.00000000E+00  0.00000000E+00
