title
1.
-0.000000000 -1.760000000 -5.280000000
-1.760000000 0.000000000 -5.280000000
3.520000000 3.520000000 0.000000000
3 3
Cartesian
1.760000000 1.760000000 -7.040000000    Al
1.760000000 1.760000000 -10.560000000    Al
0.000000000 0.000000000 -7.040000000    Al
0.000000000 0.000000000 -3.520000000    Ni_pv
0.000000000 0.000000000 -10.560000000    Ni_pv
1.760000000 1.760000000 -3.520000000    Ni_pv
