title                                   
   1.00000000000000     
    -0.0000000000000000   -1.9800890020369857    1.9800890020369857
    -0.0000000000000000    1.9800890020369857    1.9800890020369857
    -3.0433320140972069   -0.0000000000000000    0.0000000000000000
   Al   Ni
     1     1
Direct
  0.5000000000000000  0.5000000000000000  0.5000000000000000
  0.0000000000000000 -0.0000000000000000  0.0000000000000000
 
  0.00000000E+00  0.00000000E+00  0.00000000E+00
  0.00000000E+00  0.00000000E+00  0.00000000E+00
