title                                   
   1.00000000000000     
    -1.7112844048987215    5.4116818929522914   -3.5755676302739001
     1.7112844048987215    3.5755676302739001   -5.4116818929522914
    -1.7112844048987215   -5.4116818929522914    3.5755676302739001
   Al   Ni
     1     4
Direct
 -0.0000000000000000 -0.0000000000000000 -0.0000000000000000
  0.2019760030939508  0.2019760030939508  0.0000000000000000
  0.3985887382073385  0.3985887382073385  0.0000000000000000
  0.6014112617926612  0.6014112617926612 -0.0000000000000000
  0.7980239969060492  0.7980239969060492 -0.0000000000000000
 
  0.00000000E+00  0.00000000E+00  0.00000000E+00
  0.00000000E+00  0.00000000E+00  0.00000000E+00
  0.00000000E+00  0.00000000E+00  0.00000000E+00
  0.00000000E+00  0.00000000E+00  0.00000000E+00
  0.00000000E+00  0.00000000E+00  0.00000000E+00
