title                                   
   1.00000000000000     
     1.8469751397497811    1.8688331210033529    3.8585903886452741
     3.8585903886452741    1.8688331210033529    1.8469751397497811
    -3.8311318650831678    3.8166422876583881   -3.8311318650831678
   Al   Ni
     4     1
Direct
  0.8209317700856360  0.8209317700856360  0.2126849943284839
  0.0159146971819126  0.0159146971819126  0.0223492110445491
  0.1840853028180902  0.1840853028180902  0.7776507889554480
  0.3790682299143597  0.3790682299143597  0.5873150056715204
  0.6000000000000014  0.6000000000000014  0.3999999999999986
 
  0.00000000E+00  0.00000000E+00  0.00000000E+00
  0.00000000E+00  0.00000000E+00  0.00000000E+00
  0.00000000E+00  0.00000000E+00  0.00000000E+00
  0.00000000E+00  0.00000000E+00  0.00000000E+00
  0.00000000E+00  0.00000000E+00  0.00000000E+00
