title                                   
   1.00000000000000     
    -3.7044809793711626   -1.6306729695633781   -1.8014911012620820
    -1.8014911012620820   -1.6306729695633781   -3.7044809793711631
     1.8386694749524242   -3.2656326407706455    1.8386694749524239
   Al   Ni
     1     3
Direct
  0.0000000000000000 -0.0000000000000000 -0.0000000000000000
  0.7477527294177347  0.7477527294177347  0.2523666878993756
  0.5000000000000000  0.5000000000000000  0.5000000000000000
  0.2522472705822656  0.2522472705822656  0.7476333121006244
 
  0.00000000E+00  0.00000000E+00  0.00000000E+00
  0.00000000E+00  0.00000000E+00  0.00000000E+00
  0.00000000E+00  0.00000000E+00  0.00000000E+00
  0.00000000E+00  0.00000000E+00  0.00000000E+00
