title
1.
-3.520000000 -1.760000000 -1.760000000
-1.760000000 -1.760000000 -3.520000000
1.760000000 -3.520000000 1.760000000
1 3
Cartesian
-3.520000000 -7.040000000 -3.520000000    Al
-3.520000000 -3.520000000 -3.520000000    Ni_pv
-1.760000000 -3.520000000 -1.760000000    Ni_pv
0.000000000 -3.520000000 -0.000000000    Ni_pv
