title                                   
   1.00000000000000     
     1.8788427296995562   -3.6661857414454668    1.8787156267677798
     1.8788427296995562   -3.6661857414454668   -1.8787156267677798
     3.9123133926767353    3.7471308057381814    0.0000000000000000
   Al   Ni
     4     2
Direct
  0.0047345688350525  0.0047345688350525 -0.0244021058877712
  0.3333333333333357  0.3333333333333357  0.1666666666666643
  0.6619320978316119  0.6619320978316119  0.3577354392211070
  0.3333333333333357  0.3333333333333357  0.6666666666666643
 -0.0097701549616783 -0.0097701549616783  0.4769533585345715
  0.6764368216283425  0.6764368216283425  0.8563799747987642
 
  0.00000000E+00  0.00000000E+00  0.00000000E+00
  0.00000000E+00  0.00000000E+00  0.00000000E+00
  0.00000000E+00  0.00000000E+00  0.00000000E+00
  0.00000000E+00  0.00000000E+00  0.00000000E+00
  0.00000000E+00  0.00000000E+00  0.00000000E+00
  0.00000000E+00  0.00000000E+00  0.00000000E+00
