title                                   
   1.00000000000000     
    -1.5485178126570309    5.8322281515305772   -3.8804486119187551
     1.5485178126570309    3.8804486119187547   -5.8322281515305772
    -1.5485178126570309   -5.8322281515305772    3.8804486119187551
   Al   Ni
     2     3
Direct
  0.9949552098475323  0.9949552098475323  0.0000000000000000
  0.2050447901524706  0.2050447901524706  0.0000000000000000
  0.4023643331850764  0.4023643331850764  0.0000000000000000
  0.6000000000000014  0.6000000000000014  0.0000000000000000
  0.7976356668149194  0.7976356668149194  0.0000000000000000
 
  0.00000000E+00  0.00000000E+00  0.00000000E+00
  0.00000000E+00  0.00000000E+00  0.00000000E+00
  0.00000000E+00  0.00000000E+00  0.00000000E+00
  0.00000000E+00  0.00000000E+00  0.00000000E+00
  0.00000000E+00  0.00000000E+00  0.00000000E+00
