title
1.
1.760000000 3.520000000 -1.760000000
1.760000000 -3.520000000 -1.760000000
-3.520000000 0.000000000 -3.520000000
1 7
Cartesian
0.000000000 -1.760000000 -5.280000000    Al
0.000000000 0.000000000 -3.520000000    Ni_pv
1.760000000 -1.760000000 -3.520000000    Ni_pv
-1.760000000 0.000000000 -5.280000000    Ni_pv
0.000000000 1.760000000 -5.280000000    Ni_pv
1.760000000 0.000000000 -5.280000000    Ni_pv
1.760000000 1.760000000 -3.520000000    Ni_pv
0.000000000 0.000000000 -7.040000000    Ni_pv
