title                                   
   1.00000000000000     
    -1.9747969709661202   -0.0000000000000000   -1.9747969709661197
     0.0000000000000000   -1.9747969709661197    1.9747969709661197
    -3.5003059202716376    3.5003059202716380    3.5003059202716380
   Al   Ni
     2     1
Direct
  0.0000000000000000 -0.0000000000000000  0.0233724293209984
  0.6666666666666643  0.3333333333333357  0.6432942373456659
  0.3333333333333357  0.6666666666666643  0.3333333333333357
 
  0.00000000E+00  0.00000000E+00  0.00000000E+00
  0.00000000E+00  0.00000000E+00  0.00000000E+00
  0.00000000E+00  0.00000000E+00  0.00000000E+00
