title                                   
   1.00000000000000     
    -1.5674668918341825    7.7373678828957209   -5.7831614997643985
     1.5674668918341825    5.7831614997643985   -7.7373678828957209
    -1.5674668918341825   -7.7373678828957209    5.7831614997643985
   Al   Ni
     3     4
Direct
  0.9953286294705563  0.9953286294705563  0.0000000000000000
  0.1428571428571459  0.1428571428571459  0.0000000000000000
  0.2903856562437284  0.2903856562437284  0.0000000000000000
  0.4305711216266559  0.4305711216266559  0.0000000000000000
  0.5716206771705856  0.5716206771705856  0.0000000000000000
  0.7140936085436991  0.7140936085436991  0.0000000000000000
  0.8551431640876288  0.8551431640876288  0.0000000000000000
 
  0.00000000E+00  0.00000000E+00  0.00000000E+00
  0.00000000E+00  0.00000000E+00  0.00000000E+00
  0.00000000E+00  0.00000000E+00  0.00000000E+00
  0.00000000E+00  0.00000000E+00  0.00000000E+00
  0.00000000E+00  0.00000000E+00  0.00000000E+00
  0.00000000E+00  0.00000000E+00  0.00000000E+00
  0.00000000E+00  0.00000000E+00  0.00000000E+00
