title                                   
   1.00000000000000     
    -1.9423444556153877   -1.9423444556153877    0.0000000000000000
     1.9423444556153877   -1.9423444556153877    0.0000000000000000
     0.0000000000000000    0.0000000000000000    7.5364056256042149
   Al   Ni
     3     1
Direct
  0.5000000000000000  0.5000000000000000  0.2874649346795906
  0.5000000000000000  0.5000000000000000  0.7125350653204094
  0.0000000000000000  0.0000000000000000  0.0000000000000000
  0.0000000000000000  0.0000000000000000  0.5000000000000000
 
  0.00000000E+00  0.00000000E+00  0.00000000E+00
  0.00000000E+00  0.00000000E+00  0.00000000E+00
  0.00000000E+00  0.00000000E+00  0.00000000E+00
  0.00000000E+00  0.00000000E+00  0.00000000E+00
