title                                   
   1.00000000000000     
     1.8773106536409259   -3.7381612175222529    1.7898875810698420
    -3.7381612175222529    1.8773106536409259    1.7898875810698420
    -1.8505644344409222   -1.8505644344409222   -3.5699253131763671
   Al   Ni
     3     3
Direct
  0.6480187645620742  0.3519812354379257  0.0000000000000000
  0.8564799749422242  0.1435200250577758  0.5000000000000000
  0.3209225619485996  0.6790774380514004  0.0000000000000000
 -0.0121259754156854  0.0121259754156854  0.0000000000000000
  0.1804444397527819  0.8195555602472180  0.5000000000000000
  0.5062602342100055  0.4937397657899946  0.5000000000000000
 
  0.00000000E+00  0.00000000E+00  0.00000000E+00
  0.00000000E+00  0.00000000E+00  0.00000000E+00
  0.00000000E+00  0.00000000E+00  0.00000000E+00
  0.00000000E+00  0.00000000E+00  0.00000000E+00
  0.00000000E+00  0.00000000E+00  0.00000000E+00
  0.00000000E+00  0.00000000E+00  0.00000000E+00
