PREC = high
SIGMA = 0.07
NPAR=4
ISPIN=2
EDIFF = 1e-8
EDIFFG = 1e-5
ISMEAR=-5
IBRION=-1
ISIF=2
