title                                   
   1.00000000000000     
    -1.8121085337373775    5.5774165353788181   -3.5777845697288249
     1.8121085337373775    3.5777845697288249   -5.5774165353788181
    -1.8121085337373775   -5.5774165353788181    3.5777845697288249
   Al   Ni
     3     2
Direct
 -0.0205516402857279 -0.0205516402857279  0.0000000000000000
  0.2205516402857307  0.2205516402857307 -0.0000000000000000
  0.6000000000000014  0.6000000000000014 -0.0000000000000000
  0.4096068909038740  0.4096068909038740 -0.0000000000000000
  0.7903931090961218  0.7903931090961218 -0.0000000000000000
 
  0.00000000E+00  0.00000000E+00  0.00000000E+00
  0.00000000E+00  0.00000000E+00  0.00000000E+00
  0.00000000E+00  0.00000000E+00  0.00000000E+00
  0.00000000E+00  0.00000000E+00  0.00000000E+00
  0.00000000E+00  0.00000000E+00  0.00000000E+00
