title                                   
   1.00000000000000     
     1.7658605552113438    1.7071141620274231    3.6035578029030138
     3.6035578029030138    1.7071141620274231    1.7658605552113438
    -3.5894728115241743    3.4423199442336294   -3.5894728115241743
   Al   Ni
     1     4
Direct
  0.7999999999999972  0.7999999999999972  0.2000000000000028
  0.0002305369420696  0.0002305369420696  0.9972957938168463
  0.1994098824320361  0.1994098824320361  0.7984358849846842
  0.4005901175679654  0.4005901175679654  0.6015641150153144
  0.5997694630579318  0.5997694630579318  0.4027042061831523
 
  0.00000000E+00  0.00000000E+00  0.00000000E+00
  0.00000000E+00  0.00000000E+00  0.00000000E+00
  0.00000000E+00  0.00000000E+00  0.00000000E+00
  0.00000000E+00  0.00000000E+00  0.00000000E+00
  0.00000000E+00  0.00000000E+00  0.00000000E+00
