title                                   
   1.00000000000000     
    -2.0126068380540652   -1.7253627073813371   -3.9748960103709687
    -3.9748960103709687   -1.7253627073813371   -2.0126068380540647
     0.1279472873477005    6.5336493418988209    0.1279472873477004
   Al   Ni
     3     3
Direct
  0.9916242534898245  0.9916242534898245  0.5460567003353205
  0.6666666666666643  0.6666666666666643  0.3333333333333357
  0.3417090798435112  0.3417090798435112  0.1206099663313438
  0.0163290001409493  0.0163290001409493  0.0036450474288614
  0.6666666666666643  0.6666666666666643  0.8333333333333357
  0.3170043331923864  0.3170043331923864  0.6630216192378029
 
  0.00000000E+00  0.00000000E+00  0.00000000E+00
  0.00000000E+00  0.00000000E+00  0.00000000E+00
  0.00000000E+00  0.00000000E+00  0.00000000E+00
  0.00000000E+00  0.00000000E+00  0.00000000E+00
  0.00000000E+00  0.00000000E+00  0.00000000E+00
  0.00000000E+00  0.00000000E+00  0.00000000E+00
