title                                   
   1.00000000000000     
    -2.0126068380540652   -1.7253627073813371   -3.9748960103709687
    -3.9748960103709687   -1.7253627073813371   -2.0126068380540647
     0.1279472873477005    6.5336493418988209    0.1279472873477004
   Al   Ni
     3     3
Direct
 -0.0083757465101774 -0.0083757465101774  0.5460567003353224
  0.6666666666666643  0.6666666666666643  0.3333333333333357
  0.3417090798435128  0.3417090798435128  0.1206099663313421
  0.0163290001409505  0.0163290001409505  0.0036450474288583
  0.6666666666666643  0.6666666666666643  0.8333333333333357
  0.3170043331923852  0.3170043331923852  0.6630216192378059
 
  0.00000000E+00  0.00000000E+00  0.00000000E+00
  0.00000000E+00  0.00000000E+00  0.00000000E+00
  0.00000000E+00  0.00000000E+00  0.00000000E+00
  0.00000000E+00  0.00000000E+00  0.00000000E+00
  0.00000000E+00  0.00000000E+00  0.00000000E+00
  0.00000000E+00  0.00000000E+00  0.00000000E+00
