title                                   
   1.00000000000000     
    -1.7705058688077759    1.7963723986259610   -3.7738780761914059
    -3.7738780761914059   -1.7963723986259610   -1.7705058688077759
     1.7705058688077759    1.7963723986259610    3.7738780761914059
   Al   Ni
     2     1
Direct
  0.9944688940377162  0.9944688940377162  0.0000000000000000
  0.6721977726289481  0.6721977726289481  0.0000000000000000
  0.3333333333333357  0.3333333333333357  0.0000000000000000
 
  0.00000000E+00  0.00000000E+00  0.00000000E+00
  0.00000000E+00  0.00000000E+00  0.00000000E+00
  0.00000000E+00  0.00000000E+00  0.00000000E+00
