title                                   
   1.00000000000000     
    -3.3617102116926620   -1.8398584562030522    1.8398584562030522
    -3.3617102116926620    1.8398584562030522   -1.8398584562030522
     3.3617102116926620   -1.8398584562030522   -1.8398584562030522
   Al   Ni
     1     3
Direct
 -0.0000000000000000 -0.0000000000000000 -0.0000000000000000
  0.2500000000000000  0.7500000000000000  0.5000000000000000
  0.7500000000000000  0.2500000000000000  0.5000000000000000
  0.5000000000000000  0.5000000000000000 -0.0000000000000000
 
  0.00000000E+00  0.00000000E+00  0.00000000E+00
  0.00000000E+00  0.00000000E+00  0.00000000E+00
  0.00000000E+00  0.00000000E+00  0.00000000E+00
  0.00000000E+00  0.00000000E+00  0.00000000E+00
