title                                   
   1.00000000000000     
     0.0000000000000000   -1.9709909958093523    1.9709909958093523
    -3.6752050957011377   -1.7635739588377179   -1.7635739588377179
     3.8928780430504131   -3.7476851442650272   -3.7476851442650272
   Al   Ni
     4     2
Direct
  0.5000000000000000  0.5026281989357884  0.9794536587533855
  0.5000000000000000  0.1243068417751587  0.6553686617237133
  0.0000000000000000  0.3756931582248413  0.3446313382762867
  0.0000000000000000  0.9973718010642116  0.0205463412466145
  0.0000000000000000  0.6539036385811485  0.6810143423920039
  0.5000000000000000  0.8460963614188515  0.3189856576079961
 
  0.00000000E+00  0.00000000E+00  0.00000000E+00
  0.00000000E+00  0.00000000E+00  0.00000000E+00
  0.00000000E+00  0.00000000E+00  0.00000000E+00
  0.00000000E+00  0.00000000E+00  0.00000000E+00
  0.00000000E+00  0.00000000E+00  0.00000000E+00
  0.00000000E+00  0.00000000E+00  0.00000000E+00
