title                                   
   1.00000000000000     
     0.0000000000000000   -1.9709909958093523    1.9709909958093523
    -3.6752050957011377   -1.7635739588377179   -1.7635739588377179
     3.8928780430504131   -3.7476851442650272   -3.7476851442650272
   Al   Ni
     4     2
Direct
  0.5000000000000000  0.5026281989357909 -0.0205463412466163
  0.5000000000000000  0.1243068417751576  0.6553686617237112
  0.0000000000000000  0.3756931582248423  0.3446313382762888
  0.0000000000000000 -0.0026281989357910  0.0205463412466163
 -0.0000000000000000  0.6539036385811493  0.6810143423920003
  0.5000000000000000  0.8460963614188507  0.3189856576079997
 
  0.00000000E+00  0.00000000E+00  0.00000000E+00
  0.00000000E+00  0.00000000E+00  0.00000000E+00
  0.00000000E+00  0.00000000E+00  0.00000000E+00
  0.00000000E+00  0.00000000E+00  0.00000000E+00
  0.00000000E+00  0.00000000E+00  0.00000000E+00
  0.00000000E+00  0.00000000E+00  0.00000000E+00
