title                                   
   1.00000000000000     
    -0.0216094968819527    3.1694874934382171   -3.8386826704568633
    -0.0216094968819527   -3.1694874934382171   -3.8386826704568633
    -5.8066113562400599    0.0000000000000000    1.8867163074088162
   Al   Ni
     5     7
Direct
  0.0206954182831485  0.0206954182831485  0.0098250630672327
  0.4869673458413366  0.4869673458413366  0.0098955126466958
  0.1796993208253277  0.1796993208253277  0.6567711540199684
  0.8333333333333357  0.8333333333333357  0.3333333333333357
  0.6459712483835157  0.6459712483835157  0.6568416035994317
 -0.0208207056319151  0.5208025482994284 -0.0022243444560750
  0.5208025482994284 -0.0208207056319151 -0.0022243444560750
  0.1458641183672359  0.6874873722985795  0.6688910111227392
  0.8333333333333357  0.3333333333333357  0.3333333333333357
  0.6874873722985795  0.1458641183672359  0.6688910111227392
  0.3333333333333357  0.3333333333333357  0.3333333333333357
  0.3333333333333357  0.8333333333333357  0.3333333333333357
 
  0.00000000E+00  0.00000000E+00  0.00000000E+00
  0.00000000E+00  0.00000000E+00  0.00000000E+00
  0.00000000E+00  0.00000000E+00  0.00000000E+00
  0.00000000E+00  0.00000000E+00  0.00000000E+00
  0.00000000E+00  0.00000000E+00  0.00000000E+00
  0.00000000E+00  0.00000000E+00  0.00000000E+00
  0.00000000E+00  0.00000000E+00  0.00000000E+00
  0.00000000E+00  0.00000000E+00  0.00000000E+00
  0.00000000E+00  0.00000000E+00  0.00000000E+00
  0.00000000E+00  0.00000000E+00  0.00000000E+00
  0.00000000E+00  0.00000000E+00  0.00000000E+00
  0.00000000E+00  0.00000000E+00  0.00000000E+00
