title                                   
   1.00000000000000     
    -0.0216094968819527    3.1694874934382171   -3.8386826704568633
    -0.0216094968819527   -3.1694874934382171   -3.8386826704568633
    -5.8066113562400599    0.0000000000000000    1.8867163074088162
   Al   Ni
     5     7
Direct
  0.0206954182831467  0.0206954182831467  0.0098250630672325
  0.4869673458413359  0.4869673458413359  0.0098955126466933
  0.1796993208253284  0.1796993208253284  0.6567711540199710
  0.8333333333333357  0.8333333333333357  0.3333333333333357
  0.6459712483835176  0.6459712483835176  0.6568416035994318
  0.9791792943680875  0.5208025482994287  0.9977756555439257
  0.5208025482994287  0.9791792943680875  0.9977756555439257
  0.1458641183672356  0.6874873722985768  0.6688910111227386
  0.8333333333333357  0.3333333333333357  0.3333333333333357
  0.6874873722985768  0.1458641183672356  0.6688910111227386
  0.3333333333333357  0.3333333333333357  0.3333333333333357
  0.3333333333333357  0.8333333333333357  0.3333333333333357
 
  0.00000000E+00  0.00000000E+00  0.00000000E+00
  0.00000000E+00  0.00000000E+00  0.00000000E+00
  0.00000000E+00  0.00000000E+00  0.00000000E+00
  0.00000000E+00  0.00000000E+00  0.00000000E+00
  0.00000000E+00  0.00000000E+00  0.00000000E+00
  0.00000000E+00  0.00000000E+00  0.00000000E+00
  0.00000000E+00  0.00000000E+00  0.00000000E+00
  0.00000000E+00  0.00000000E+00  0.00000000E+00
  0.00000000E+00  0.00000000E+00  0.00000000E+00
  0.00000000E+00  0.00000000E+00  0.00000000E+00
  0.00000000E+00  0.00000000E+00  0.00000000E+00
  0.00000000E+00  0.00000000E+00  0.00000000E+00
