title
1.
-1.760000000 -1.760000000 -3.520000000
-3.520000000 -1.760000000 -1.760000000
0.000000000 7.040000000 0.000000000
3 3
Cartesian
-5.280000000 0.000000000 -5.280000000    Al
-3.520000000 0.000000000 -3.520000000    Al
-5.280000000 3.520000000 -5.280000000    Al
-1.760000000 0.000000000 -1.760000000    Ni_pv
-3.520000000 3.520000000 -3.520000000    Ni_pv
-1.760000000 3.520000000 -1.760000000    Ni_pv
