title                                   
   1.00000000000000     
    -1.9498578601059655   -1.5555537389658807   -3.9022354037689948
    -3.9022354037689948   -1.5555537389658807   -1.9498578601059655
    -0.0626461998441221    6.4176900340173564   -0.0626461998441221
   Al   Ni
     3     3
Direct
  0.0215295853280569  0.0215295853280569  0.5460536029678211
  0.6752278907453427  0.6752278907453427  0.2899466528398282
 -0.0491289934084303 -0.0491289934084303 -0.0526083072623449
  0.3767373990034204  0.3767373990034204  0.2163867078915764
  0.6617657749179003  0.6617657749179003  0.8780907056712081
  0.3138683434137097  0.3138683434137098  0.6221306378919113
 
  0.00000000E+00  0.00000000E+00  0.00000000E+00
  0.00000000E+00  0.00000000E+00  0.00000000E+00
  0.00000000E+00  0.00000000E+00  0.00000000E+00
  0.00000000E+00  0.00000000E+00  0.00000000E+00
  0.00000000E+00  0.00000000E+00  0.00000000E+00
  0.00000000E+00  0.00000000E+00  0.00000000E+00
