title                                   
   1.00000000000000     
    -1.7989769530598292    7.8901487374168600   -5.9546454583874988
     1.7989769530598292    5.9546454583874988   -7.8901487374168591
    -1.7989769530598292   -7.8901487374168600    5.9546454583874988
   Al   Ni
     5     2
Direct
  0.9972223779617622  0.9972223779617622  0.0000000000000000
  0.1527426588228664  0.1527426588228664  0.0000000000000000
  0.2857142857142847  0.2857142857142847  0.0000000000000000
  0.4186859126057101  0.4186859126057101  0.0000000000000000
  0.5742061934668072  0.5742061934668072  0.0000000000000000
  0.7152247804589464  0.7152247804589464  0.0000000000000000
  0.8562037909696230  0.8562037909696230  0.0000000000000000
 
  0.00000000E+00  0.00000000E+00  0.00000000E+00
  0.00000000E+00  0.00000000E+00  0.00000000E+00
  0.00000000E+00  0.00000000E+00  0.00000000E+00
  0.00000000E+00  0.00000000E+00  0.00000000E+00
  0.00000000E+00  0.00000000E+00  0.00000000E+00
  0.00000000E+00  0.00000000E+00  0.00000000E+00
  0.00000000E+00  0.00000000E+00  0.00000000E+00
