title                                   
   1.00000000000000     
    -1.7989769530598292    7.8901487374168600   -5.9546454583874988
     1.7989769530598292    5.9546454583874988   -7.8901487374168591
    -1.7989769530598292   -7.8901487374168600    5.9546454583874988
   Al   Ni
     5     2
Direct
 -0.0027776220382366 -0.0027776220382366  0.0000000000000000
  0.1527426588228687  0.1527426588228687  0.0000000000000000
  0.2857142857142847  0.2857142857142847  0.0000000000000000
  0.4186859126057078  0.4186859126057078 -0.0000000000000000
  0.5742061934668061  0.5742061934668061  0.0000000000000000
  0.7152247804589463  0.7152247804589463  0.0000000000000000
  0.8562037909696231  0.8562037909696231 -0.0000000000000000
 
  0.00000000E+00  0.00000000E+00  0.00000000E+00
  0.00000000E+00  0.00000000E+00  0.00000000E+00
  0.00000000E+00  0.00000000E+00  0.00000000E+00
  0.00000000E+00  0.00000000E+00  0.00000000E+00
  0.00000000E+00  0.00000000E+00  0.00000000E+00
  0.00000000E+00  0.00000000E+00  0.00000000E+00
  0.00000000E+00  0.00000000E+00  0.00000000E+00
