title                                   
   1.00000000000000     
     3.7446948514962468    2.0369514226761742    1.8175086829853735
    -2.0369514226761738   -1.8175086829853730    3.7446948514962464
     1.8175086829853728   -3.7446948514962473   -2.0369514226761747
   Al   Ni
     4     3
Direct
  0.3863767741046402  0.6720910598189249  0.8149482026760637
  0.6613783621979366  0.9409727888034354  0.4700924138996712
  0.0415209853282406  0.9470926479122213  0.0838299316605813
  0.6552585030891507  0.3272352710425253  0.0899497907693672
  0.2207579731730718  0.1062575319462411  0.6427355844464415
  0.8205432462319493  0.4998784415893027  0.6493294017445024
  0.2141641558750180  0.5064722588873565  0.2491146748033799
 
  0.00000000E+00  0.00000000E+00  0.00000000E+00
  0.00000000E+00  0.00000000E+00  0.00000000E+00
  0.00000000E+00  0.00000000E+00  0.00000000E+00
  0.00000000E+00  0.00000000E+00  0.00000000E+00
  0.00000000E+00  0.00000000E+00  0.00000000E+00
  0.00000000E+00  0.00000000E+00  0.00000000E+00
  0.00000000E+00  0.00000000E+00  0.00000000E+00
