title                                   
   1.00000000000000     
     3.7446948514962468    2.0369514226761742    1.8175086829853735
    -2.0369514226761738   -1.8175086829853730    3.7446948514962464
     1.8175086829853728   -3.7446948514962473   -2.0369514226761747
   Al   Ni
     4     3
Direct
  0.3863767741046372  0.6720910598189217  0.8149482026760605
  0.6613783621979350  0.9409727888034359  0.4700924138996689
  0.0415209853282382 -0.0529073520877805  0.0838299316605818
  0.6552585030891512  0.3272352710425230  0.0899497907693654
  0.2207579731730738  0.1062575319462380  0.6427355844464422
  0.8205432462319464  0.4998784415893033  0.6493294017445044
  0.2141641558750186  0.5064722588873585  0.2491146748033770
 
  0.00000000E+00  0.00000000E+00  0.00000000E+00
  0.00000000E+00  0.00000000E+00  0.00000000E+00
  0.00000000E+00  0.00000000E+00  0.00000000E+00
  0.00000000E+00  0.00000000E+00  0.00000000E+00
  0.00000000E+00  0.00000000E+00  0.00000000E+00
  0.00000000E+00  0.00000000E+00  0.00000000E+00
  0.00000000E+00  0.00000000E+00  0.00000000E+00
