title                                   
   1.00000000000000     
     0.0000000000000000   -1.7873845314307744   -5.3247882885396276
     0.0000000000000000   -1.7873845314307744    5.3247882885396276
    -3.5181671641803716    0.0000000000000000    0.0000000000000000
   Al   Ni
     1     5
Direct
  0.8333333333333357  0.1666666666666643  0.5000000000000000
  0.1662140196570612  0.8337859803429388  0.5000000000000000
  0.0024761754683164 -0.0024761754683164  0.0000000000000000
  0.5004526470096031  0.4995473529903969  0.5000000000000000
  0.3333333333333357  0.6666666666666643  0.0000000000000000
  0.6641904911983479  0.3358095088016521  0.0000000000000000
 
  0.00000000E+00  0.00000000E+00  0.00000000E+00
  0.00000000E+00  0.00000000E+00  0.00000000E+00
  0.00000000E+00  0.00000000E+00  0.00000000E+00
  0.00000000E+00  0.00000000E+00  0.00000000E+00
  0.00000000E+00  0.00000000E+00  0.00000000E+00
  0.00000000E+00  0.00000000E+00  0.00000000E+00
