title                                   
   1.00000000000000     
     3.9072946403015418    3.7342294037954336    3.9072946403015409
    -1.9522967206157711   -0.0000000000000000    1.9522967206157711
     2.0231243247602957   -7.6162332328988320    2.0231243247602961
   Al   Ni
     8     2
Direct
  0.2969363355036603  0.5000000000000000  0.9174771629220396
  0.1000000000000014  0.5000000000000000  0.2999999999999972
  0.2252457715531157  0.0000000000000000  0.5976272431056692
  0.5241195149389640  0.5000000000000000  0.4505155758179962
  0.6000000000000014 -0.0000000000000000  0.7999999999999972
  0.9030636644963357  0.5000000000000000  0.6825228370779618
 -0.0252457715531128  0.0000000000000000  0.0023727568943325
  0.6758804850610388  0.5000000000000000  0.1494844241820051
  0.3575774943745009  0.0000000000000000  0.1839177796576611
  0.8424225056254947  0.0000000000000000  0.4160822203423404
 
  0.00000000E+00  0.00000000E+00  0.00000000E+00
  0.00000000E+00  0.00000000E+00  0.00000000E+00
  0.00000000E+00  0.00000000E+00  0.00000000E+00
  0.00000000E+00  0.00000000E+00  0.00000000E+00
  0.00000000E+00  0.00000000E+00  0.00000000E+00
  0.00000000E+00  0.00000000E+00  0.00000000E+00
  0.00000000E+00  0.00000000E+00  0.00000000E+00
  0.00000000E+00  0.00000000E+00  0.00000000E+00
  0.00000000E+00  0.00000000E+00  0.00000000E+00
  0.00000000E+00  0.00000000E+00  0.00000000E+00
