title                                   
   1.00000000000000     
     1.9408580132803257   -3.8817162995397370    1.9263656193410883
    -1.9408580132803257    3.8817162995397370    1.9263656193410883
    -3.8817162995397370   -1.9408580132803261   -1.9263656193410883
   Al   Ni
     4     1
Direct
  0.4046945156440234  0.2058090695522378  0.6105035851962610
  0.5941909304477665  0.8046945156440219  0.3988854460917885
  0.8058090695522321  0.3953054843559738  0.2011145539082131
 -0.0046945156440248 -0.0058090695522349 -0.0105035851962597
  0.2000000000000028  0.6000000000000014  0.7999999999999972
 
  0.00000000E+00  0.00000000E+00  0.00000000E+00
  0.00000000E+00  0.00000000E+00  0.00000000E+00
  0.00000000E+00  0.00000000E+00  0.00000000E+00
  0.00000000E+00  0.00000000E+00  0.00000000E+00
  0.00000000E+00  0.00000000E+00  0.00000000E+00
