title                                   
   1.00000000000000     
     1.8105228696832825    0.0000000000000000   -9.1517563318872543
     1.8105228696832825    0.0000000000000000    9.1517563318872543
     0.0000000000000000   -3.4718589086949150    0.0000000000000000
   Al   Ni
     3     7
Direct
  0.9070350790502459  0.0929649209497541  0.5000000000000000
  0.1000000000000014  0.8999999999999986  0.5000000000000000
  0.2929649209497569  0.7070350790502431  0.5000000000000000
  0.0009787238052184  0.9990212761947816  0.0000000000000000
  0.7998396499433795  0.2001603500566205  0.0000000000000000
  0.1990212761947845  0.8009787238052155  0.0000000000000000
  0.5017446304045521  0.4982553695954479  0.5000000000000000
  0.4001603500566162  0.5998396499433838  0.0000000000000000
  0.6982553695954508  0.3017446304045492  0.5000000000000000
  0.6000000000000014  0.3999999999999986  0.0000000000000000
 
  0.00000000E+00  0.00000000E+00  0.00000000E+00
  0.00000000E+00  0.00000000E+00  0.00000000E+00
  0.00000000E+00  0.00000000E+00  0.00000000E+00
  0.00000000E+00  0.00000000E+00  0.00000000E+00
  0.00000000E+00  0.00000000E+00  0.00000000E+00
  0.00000000E+00  0.00000000E+00  0.00000000E+00
  0.00000000E+00  0.00000000E+00  0.00000000E+00
  0.00000000E+00  0.00000000E+00  0.00000000E+00
  0.00000000E+00  0.00000000E+00  0.00000000E+00
  0.00000000E+00  0.00000000E+00  0.00000000E+00
