title
1.
1.760000000 0.000000000 -8.800000000
1.760000000 0.000000000 8.800000000
0.000000000 -3.520000000 0.000000000
3 7
Cartesian
1.760000000 -1.760000000 -7.040000000    Al
1.760000000 -1.760000000 7.040000000    Al
1.760000000 -1.760000000 3.520000000    Al
3.520000000 -3.520000000 0.000000000    Ni_pv
1.760000000 -3.520000000 -5.280000000    Ni_pv
1.760000000 -3.520000000 5.280000000    Ni_pv
1.760000000 -1.760000000 0.000000000    Ni_pv
1.760000000 -3.520000000 1.760000000    Ni_pv
1.760000000 -1.760000000 -3.520000000    Ni_pv
1.760000000 -3.520000000 -1.760000000    Ni_pv
