title                                   
   1.00000000000000     
     0.0000000000000000   -1.9405380842221733   -5.4447013992960391
     0.0000000000000000    1.9405380842221733   -5.4447013992960391
     1.9405380842221733   -0.0000000000000000    5.4447013992960391
   Al   Ni
     2     1
Direct
  0.6877698161210571  0.6877698161210571 -0.0000000000000000
 -0.0211031494543927 -0.0211031494543927  0.0000000000000000
  0.3333333333333357  0.3333333333333357  0.0000000000000000
 
  0.00000000E+00  0.00000000E+00  0.00000000E+00
  0.00000000E+00  0.00000000E+00  0.00000000E+00
  0.00000000E+00  0.00000000E+00  0.00000000E+00
