title                                   
   1.00000000000000     
    -1.8046737979503151    1.7483674851337632    3.7873207481049822
     1.8901044902827433    3.6147748382292728   -1.9110476657981785
    -3.6950513384879771   -0.0356089495441515   -3.8105579613331115
   Al   Ni
     4     4
Direct
  0.0156678673053960  0.0062683208718823  0.0195717973620262
  0.4708476215485220  0.7539136116803746  0.6006761912494269
  0.5052091245975348  0.7323053896947016  0.1378752258156410
  0.5084321116379584  0.2601502045359112  0.8565914329939091
  0.9897000675088563  0.9998186884068545  0.5093514444696225
  0.0193548291601360  0.5012760795099567  0.7574944902336043
  0.5015077556345702  0.2518430034648063  0.3724872468490190
  0.9892806226070263  0.4944247018355057  0.2459521710267438
 
  0.00000000E+00  0.00000000E+00  0.00000000E+00
  0.00000000E+00  0.00000000E+00  0.00000000E+00
  0.00000000E+00  0.00000000E+00  0.00000000E+00
  0.00000000E+00  0.00000000E+00  0.00000000E+00
  0.00000000E+00  0.00000000E+00  0.00000000E+00
  0.00000000E+00  0.00000000E+00  0.00000000E+00
  0.00000000E+00  0.00000000E+00  0.00000000E+00
  0.00000000E+00  0.00000000E+00  0.00000000E+00
