title                                   
   1.00000000000000     
    -1.8046737979503151    1.7483674851337632    3.7873207481049822
     1.8901044902827433    3.6147748382292728   -1.9110476657981785
    -3.6950513384879771   -0.0356089495441515   -3.8105579613331115
   Al   Ni
     4     4
Direct
  0.0156678673053936  0.0062683208718855  0.0195717973620295
  0.4708476215485192  0.7539136116803727  0.6006761912494288
  0.5052091245975373  0.7323053896947009  0.1378752258156422
  0.5084321116379568  0.2601502045359078  0.8565914329939095
 -0.0102999324911403 -0.0001813115931438  0.5093514444696225
  0.0193548291601377  0.5012760795099599  0.7574944902336025
  0.5015077556345684  0.2518430034648095  0.3724872468490195
 -0.0107193773929726  0.4944247018355071  0.2459521710267454
 
  0.00000000E+00  0.00000000E+00  0.00000000E+00
  0.00000000E+00  0.00000000E+00  0.00000000E+00
  0.00000000E+00  0.00000000E+00  0.00000000E+00
  0.00000000E+00  0.00000000E+00  0.00000000E+00
  0.00000000E+00  0.00000000E+00  0.00000000E+00
  0.00000000E+00  0.00000000E+00  0.00000000E+00
  0.00000000E+00  0.00000000E+00  0.00000000E+00
  0.00000000E+00  0.00000000E+00  0.00000000E+00
