title                                   
   1.00000000000000     
    -3.7599861602754148   -3.7599861602754148   -0.0000000000000000
    -3.7599861602754148    3.7599861602754148    0.0000000000000000
    -0.0000000000000000    0.0000000000000000   -3.5504565689633325
   Al   Ni
     4     4
Direct
  0.7669567491937294  0.7500000000000000  0.5000000000000000
  0.5000000000000000  0.4830432508062706 -0.0000000000000000
  0.5000000000000000  0.0169567491937294  0.0000000000000000
  0.2330432508062706  0.7500000000000000  0.5000000000000000
  0.7515739865480915  0.2500000000000000  0.5000000000000000
  0.2484260134519083  0.2500000000000000  0.5000000000000000
  0.0000000000000000  0.4984260134519082  0.0000000000000000
  0.0000000000000000  0.0015739865480917 -0.0000000000000000
 
  0.00000000E+00  0.00000000E+00  0.00000000E+00
  0.00000000E+00  0.00000000E+00  0.00000000E+00
  0.00000000E+00  0.00000000E+00  0.00000000E+00
  0.00000000E+00  0.00000000E+00  0.00000000E+00
  0.00000000E+00  0.00000000E+00  0.00000000E+00
  0.00000000E+00  0.00000000E+00  0.00000000E+00
  0.00000000E+00  0.00000000E+00  0.00000000E+00
  0.00000000E+00  0.00000000E+00  0.00000000E+00
