title                                   
   1.00000000000000     
    -1.6232047476564813    1.6232047476564813    3.5426845402564218
    -1.6232047476564813    3.5426845402564218    1.6232047476564813
    -3.5426845402564218    1.6232047476564810    1.6232047476564810
   Al   Ni
     1     1
Direct
 -0.0000000000000000 -0.0000000000000000  0.0000000000000000
  0.5000000000000000  0.5000000000000000  0.5000000000000000
 
  0.00000000E+00  0.00000000E+00  0.00000000E+00
  0.00000000E+00  0.00000000E+00  0.00000000E+00
