title
1.
-1.760000000 1.760000000 3.520000000
-1.760000000 3.520000000 1.760000000
-3.520000000 1.760000000 1.760000000
1 1
Cartesian
-7.040000000 7.040000000 7.040000000    Al
-3.520000000 3.520000000 3.520000000    Ni_pv
