title                                   
   1.00000000000000     
    -1.9637844708854757   -3.9275689417709505   -1.9637844708854755
    -1.9637844708854757    1.9637844708854755    3.9275689417709505
    -3.7168880100074229    3.7168880100074229   -3.7168880100074229
   Al   Ni
     7     2
Direct
  0.3333333333333357  0.6766693671165172  0.9842212400309123
  0.3333333333333357  0.3333333333333357  0.6666666666666643
  0.3333333333333357  0.9899972995501471  0.3491120933024234
  0.9899972995501471  0.3333333333333357  0.3491120933024234
  0.6766693671165172  0.6766693671165172  0.3491120933024234
  0.9899972995501471  0.9899972995501471  0.9842212400309123
  0.6766693671165172  0.3333333333333357  0.9842212400309123
  0.0000000000000000  0.6666666666666643  0.6666666666666643
  0.6666666666666643  0.0000000000000000  0.6666666666666643
 
  0.00000000E+00  0.00000000E+00  0.00000000E+00
  0.00000000E+00  0.00000000E+00  0.00000000E+00
  0.00000000E+00  0.00000000E+00  0.00000000E+00
  0.00000000E+00  0.00000000E+00  0.00000000E+00
  0.00000000E+00  0.00000000E+00  0.00000000E+00
  0.00000000E+00  0.00000000E+00  0.00000000E+00
  0.00000000E+00  0.00000000E+00  0.00000000E+00
  0.00000000E+00  0.00000000E+00  0.00000000E+00
  0.00000000E+00  0.00000000E+00  0.00000000E+00
