title
1.
-1.760000000 -3.520000000 -1.760000000
-1.760000000 1.760000000 3.520000000
-3.520000000 3.520000000 -3.520000000
7 2
Cartesian
-5.280000000 3.520000000 -1.760000000    Al
-3.520000000 1.760000000 -1.760000000    Al
-3.520000000 1.760000000 1.760000000    Al
-3.520000000 -1.760000000 -1.760000000    Al
-3.520000000 0.000000000 0.000000000    Al
-7.040000000 1.760000000 -1.760000000    Al
-5.280000000 1.760000000 -3.520000000    Al
-5.280000000 0.000000000 -1.760000000    Ni_pv
-5.280000000 1.760000000 0.000000000    Ni_pv
