title                                   
   1.00000000000000     
    -1.8859171634013892    1.6173786813696052   -3.7886095051876452
    -3.7886095051876447   -1.6173786813696052   -1.8859171634013892
     1.8859171634013892    1.6173786813696052    3.7886095051876452
   Al   Ni
     1     2
Direct
 -0.0000000000000000 -0.0000000000000000 -0.0000000000000000
  0.6642214344959424  0.6642214344959424 -0.0000000000000000
  0.3357785655040575  0.3357785655040575  0.0000000000000000
 
  0.00000000E+00  0.00000000E+00  0.00000000E+00
  0.00000000E+00  0.00000000E+00  0.00000000E+00
  0.00000000E+00  0.00000000E+00  0.00000000E+00
