PREC = high
ISMEAR = 1
SIGMA = 0.07
NSW=41
IBRION = 2
ISIF = 3
NPAR=4
ISPIN=2
EDIFF = 1e-8
EDIFFG = 1e-5
