title                                   
   1.00000000000000     
     0.0000000000000000   -1.9114386407901638   -5.1119249942115630
     0.0000000000000000   -1.9114386407901638    5.1119249942115630
    -3.8171340631794117    0.0000000000000000    0.0000000000000000
   Al   Ni
     3     3
Direct
  0.8092601296796238  0.1907398703203764  0.5000000000000000
  0.0123071820342768 -0.0123071820342768  0.0000000000000000
  0.5071343628243136  0.4928656371756862  0.5000000000000000
  0.1644788123400867  0.8355211876599135  0.5000000000000000
  0.3462262695750682  0.6537737304249317  0.0000000000000000
  0.6605932435466312  0.3394067564533688  0.0000000000000000
 
  0.00000000E+00  0.00000000E+00  0.00000000E+00
  0.00000000E+00  0.00000000E+00  0.00000000E+00
  0.00000000E+00  0.00000000E+00  0.00000000E+00
  0.00000000E+00  0.00000000E+00  0.00000000E+00
  0.00000000E+00  0.00000000E+00  0.00000000E+00
  0.00000000E+00  0.00000000E+00  0.00000000E+00
