title                                   
   1.00000000000000     
    -1.8800778063190129   -0.0000000000000000   -1.8800778063190129
    -0.0000000000000000   -1.8800778063190129    1.8800778063190129
    -3.3740144198442388    3.3740144198442388    3.3740144198442388
   Al   Ni
     1     2
Direct
  0.0000000000000000 -0.0000000000000000  0.0000000000000000
  0.6666666666666643  0.3333333333333357  0.6719511883902179
  0.3333333333333357  0.6666666666666643  0.3280488116097821
 
  0.00000000E+00  0.00000000E+00  0.00000000E+00
  0.00000000E+00  0.00000000E+00  0.00000000E+00
  0.00000000E+00  0.00000000E+00  0.00000000E+00
