title
1.
-3.520000000 -1.760000000 1.760000000
-3.520000000 1.760000000 -1.760000000
3.520000000 -1.760000000 -1.760000000
2 2
Cartesian
-3.520000000 -1.760000000 -1.760000000    Al
-1.760000000 0.000000000 -1.760000000    Al
-1.760000000 -1.760000000 0.000000000    Ni_pv
0.000000000 -1.760000000 -1.760000000    Ni_pv
