title                                   
   1.00000000000000     
    -3.9477245476842504   -1.7564417362563931    1.7564417362563931
    -3.9477245476842504    1.7564417362563931   -1.7564417362563931
     3.9477245476842504   -1.7564417362563931   -1.7564417362563931
   Al   Ni
     2     2
Direct
  0.0000000000000000 -0.0000000000000000  0.0000000000000000
  0.2500000000000000  0.7500000000000000  0.5000000000000000
  0.7500000000000000  0.2500000000000000  0.5000000000000000
  0.5000000000000000  0.5000000000000000 -0.0000000000000000
 
  0.00000000E+00  0.00000000E+00  0.00000000E+00
  0.00000000E+00  0.00000000E+00  0.00000000E+00
  0.00000000E+00  0.00000000E+00  0.00000000E+00
  0.00000000E+00  0.00000000E+00  0.00000000E+00
