title                                   
   1.00000000000000     
     1.9491791011625403    1.6035496566034046    3.9343022909279570
     3.9343022909279570    1.6035496566034046    1.9491791011625403
    -3.8344532654556076    2.9843846622612134   -3.8344532654556076
   Al   Ni
     2     3
Direct
  0.8216996488216779  0.8216996488216779  0.2277911556099497
  0.9783003511783193  0.9783003511783193  0.9722088443900532
  0.1987462120130630  0.1987462120130630  0.8139199677901843
  0.3999999999999986  0.3999999999999986  0.6000000000000014
  0.6012537879869413  0.6012537879869413  0.3860800322098115
 
  0.00000000E+00  0.00000000E+00  0.00000000E+00
  0.00000000E+00  0.00000000E+00  0.00000000E+00
  0.00000000E+00  0.00000000E+00  0.00000000E+00
  0.00000000E+00  0.00000000E+00  0.00000000E+00
  0.00000000E+00  0.00000000E+00  0.00000000E+00
