title                                   
   1.00000000000000     
    -3.7748789476531552   -3.7748789476531552    0.0000000000000000
    -3.7748789476531552    3.7748789476531552   -0.0000000000000000
    -0.0000000000000000    0.0000000000000000   -3.2870072402967336
   Al   Ni
     3     5
Direct
  0.7500000000000000  0.7500000000000000  0.5000000000000000
  0.7500000000000000  0.2500000000000000  0.5000000000000000
  0.2500000000000000  0.7500000000000000  0.5000000000000000
  0.4985017965125196  0.4985017965125196 -0.0000000000000000
  0.4985017965125196  0.0014982034874803 -0.0000000000000000
  0.2500000000000000  0.2500000000000000  0.5000000000000000
  0.0014982034874803  0.4985017965125196  0.0000000000000000
  0.0014982034874803  0.0014982034874803  0.0000000000000000
 
  0.00000000E+00  0.00000000E+00  0.00000000E+00
  0.00000000E+00  0.00000000E+00  0.00000000E+00
  0.00000000E+00  0.00000000E+00  0.00000000E+00
  0.00000000E+00  0.00000000E+00  0.00000000E+00
  0.00000000E+00  0.00000000E+00  0.00000000E+00
  0.00000000E+00  0.00000000E+00  0.00000000E+00
  0.00000000E+00  0.00000000E+00  0.00000000E+00
  0.00000000E+00  0.00000000E+00  0.00000000E+00
