title                                   
   1.00000000000000     
     1.7901932256508186    3.9028116747517485   -1.7901932256508186
     1.7901932256508186   -3.9028116747517485   -1.7901932256508186
    -3.5245669166146882   -0.0000000000000000   -3.5245669166146882
   Al   Ni
     4     4
Direct
  0.5000000000000000  0.5000000000000000  0.5000000000000000
  0.5000000000000000  0.0000000000000000  0.1664701780127547
  0.0000000000000000  0.5000000000000000  0.8335298219872451
 -0.0000000000000000 -0.0000000000000000  0.5000000000000000
  0.5000000000000000  0.0000000000000000  0.6732075540103291
  0.5000000000000000  0.5000000000000000 -0.0000000000000000
 -0.0000000000000000  0.5000000000000000  0.3267924459896709
 -0.0000000000000000 -0.0000000000000000 -0.0000000000000000
 
  0.00000000E+00  0.00000000E+00  0.00000000E+00
  0.00000000E+00  0.00000000E+00  0.00000000E+00
  0.00000000E+00  0.00000000E+00  0.00000000E+00
  0.00000000E+00  0.00000000E+00  0.00000000E+00
  0.00000000E+00  0.00000000E+00  0.00000000E+00
  0.00000000E+00  0.00000000E+00  0.00000000E+00
  0.00000000E+00  0.00000000E+00  0.00000000E+00
  0.00000000E+00  0.00000000E+00  0.00000000E+00
