title                                   
   1.00000000000000     
    -5.2992869142369248    3.3755703414885754    5.2992869142369248
    -3.3755703414885754    5.2992869142369248    5.2992869142369248
    -5.2992869142369248    5.2992869142369248    3.3755703414885754
   Al   Ni
     2     2
Direct
  0.4931308879186673  0.4931308879186673  0.4931308879186673
  0.2568691120813327  0.2568691120813327  0.2568691120813327
  0.0006897853154157  0.0006897853154157  0.0006897853154157
  0.7493102146845843  0.7493102146845843  0.7493102146845843
 
  0.00000000E+00  0.00000000E+00  0.00000000E+00
  0.00000000E+00  0.00000000E+00  0.00000000E+00
  0.00000000E+00  0.00000000E+00  0.00000000E+00
  0.00000000E+00  0.00000000E+00  0.00000000E+00
