title                                   
   1.00000000000000     
    -5.2992869142369248    3.3755703414885754    5.2992869142369248
    -3.3755703414885754    5.2992869142369248    5.2992869142369248
    -5.2992869142369248    5.2992869142369248    3.3755703414885754
   Al   Ni
     2     2
Direct
  0.4931308879186708  0.4931308879186708  0.4931308879186708
  0.2568691120813292  0.2568691120813292  0.2568691120813292
  0.0006897853154193  0.0006897853154193  0.0006897853154193
  0.7493102146845809  0.7493102146845809  0.7493102146845809
 
  0.00000000E+00  0.00000000E+00  0.00000000E+00
  0.00000000E+00  0.00000000E+00  0.00000000E+00
  0.00000000E+00  0.00000000E+00  0.00000000E+00
  0.00000000E+00  0.00000000E+00  0.00000000E+00
