title                                   
   1.00000000000000     
     3.8115278046669347    1.8771877235176242    1.8771877235176242
    -3.8115278046669347    1.8771877235176242    1.8771877235176242
     0.0000000000000000   -1.9674933791264806    1.9674933791264806
   Al   Ni
     3     1
Direct
  0.5000000000000000  0.0000000000000000  0.5000000000000000
  0.5000000000000000  0.5000000000000000  0.0000000000000000
 -0.0000000000000000  0.0000000000000000  0.0000000000000000
  0.0000000000000000  0.5000000000000000  0.5000000000000000
 
  0.00000000E+00  0.00000000E+00  0.00000000E+00
  0.00000000E+00  0.00000000E+00  0.00000000E+00
  0.00000000E+00  0.00000000E+00  0.00000000E+00
  0.00000000E+00  0.00000000E+00  0.00000000E+00
