title                                   
   1.00000000000000     
     1.8415912711476596    1.9118164461360274    3.7643893935352879
     3.7643893935352879    1.9118164461360276    1.8415912711476594
    -3.6814742949640675    3.6677031960611393   -3.6814742949640675
   Al   Ni
     3     2
Direct
  0.8310766714410606  0.8310766714410606  0.2659056902102861
  0.0000000000000000  0.0000000000000000  0.0000000000000000
  0.1689233285589395  0.1689233285589395  0.7340943097897139
  0.4051600422384336  0.4051600422384336  0.6318635327711041
  0.5948399577615665  0.5948399577615665  0.3681364672288960
 
  0.00000000E+00  0.00000000E+00  0.00000000E+00
  0.00000000E+00  0.00000000E+00  0.00000000E+00
  0.00000000E+00  0.00000000E+00  0.00000000E+00
  0.00000000E+00  0.00000000E+00  0.00000000E+00
  0.00000000E+00  0.00000000E+00  0.00000000E+00
