title                                   
   1.00000000000000     
     1.7597480279161222    0.0000000000000000    1.7597480279161222
     1.7597480279161222    1.7597480279161222   -0.0000000000000000
     0.0000000000000000    1.7597480279161222    1.7597480279161222
   Ni
     1
Direct
  0.0000000000000000 -0.0000000000000000  0.0000000000000000
 
  0.00000000E+00  0.00000000E+00  0.00000000E+00
