title
1.
1.760000000 0.000000000 1.760000000
1.760000000 1.760000000 0.000000000
0.000000000 1.760000000 1.760000000
1
Cartesian
3.520000000 3.520000000 3.520000000    Ni_pv
