title                                   
   1.00000000000000     
     2.0168797678298054   -0.0000000000000000    2.0168797678298049
     2.0168797678298054    2.0168797678298049    0.0000000000000000
     0.0000000000000000    2.0168797678298049    2.0168797678298049
   Al
     1
Direct
  0.0000000000000000  0.0000000000000000  0.0000000000000000
 
  0.00000000E+00  0.00000000E+00  0.00000000E+00
