title                                   
   1.00000000000000     
    -0.0017259097931421   -1.9895159636997803   -5.0080390695194552
     1.9895159636997803    0.0017259097931421   -5.0080390695194552
     3.8218744940258218   -3.8218744940258218    3.3105172554599624
   Al   Ni
     4     3
Direct
  0.7308179081403651  0.7308179081403651  0.1142784922003378
  0.8705495547679155  0.8705495547679155  0.5664963332170119
 -0.0134066976250616 -0.0134066976250616  0.0049322382115578
  0.1263249490024962  0.1263249490024962  0.4571500792282386
  0.2908687363484333  0.2908687363484333  0.8271136865191869
  0.4285714285714306  0.4285714285714306  0.2857142857142847
  0.5662741207944210  0.5662741207944210  0.7443148849093825
 
  0.00000000E+00  0.00000000E+00  0.00000000E+00
  0.00000000E+00  0.00000000E+00  0.00000000E+00
  0.00000000E+00  0.00000000E+00  0.00000000E+00
  0.00000000E+00  0.00000000E+00  0.00000000E+00
  0.00000000E+00  0.00000000E+00  0.00000000E+00
  0.00000000E+00  0.00000000E+00  0.00000000E+00
  0.00000000E+00  0.00000000E+00  0.00000000E+00
