title                                   
   1.00000000000000     
     1.7681778893984501   -3.5363569958742826    1.8005098366032259
    -1.7681778893984501    3.5363569958742826    1.8005098366032259
    -3.5363569958742826   -1.7681778893984501   -1.8005098366032259
   Al   Ni
     1     4
Direct
  0.3999999999999986  0.2000000000000028  0.6000000000000014
  0.5972813624690687  0.7975654432225312  0.3948468056915999
  0.8024345567774631  0.3972813624690659  0.1997159192465290
  0.9975654432225340  0.0027186375309327  0.0002840807534739
  0.2027186375309356  0.6024345567774674  0.8051531943083958
 
  0.00000000E+00  0.00000000E+00  0.00000000E+00
  0.00000000E+00  0.00000000E+00  0.00000000E+00
  0.00000000E+00  0.00000000E+00  0.00000000E+00
  0.00000000E+00  0.00000000E+00  0.00000000E+00
  0.00000000E+00  0.00000000E+00  0.00000000E+00
