title                                   
   1.00000000000000     
     1.7681778893984501   -3.5363569958742826    1.8005098366032259
    -1.7681778893984501    3.5363569958742826    1.8005098366032259
    -3.5363569958742826   -1.7681778893984501   -1.8005098366032259
   Al   Ni
     1     4
Direct
  0.3999999999999986  0.2000000000000028  0.6000000000000014
  0.5972813624690663  0.7975654432225332  0.3948468056915995
  0.8024345567774611  0.3972813624690635  0.1997159192465317
 -0.0024345567774640  0.0027186375309351  0.0002840807534711
  0.2027186375309379  0.6024345567774654  0.8051531943083963
 
  0.00000000E+00  0.00000000E+00  0.00000000E+00
  0.00000000E+00  0.00000000E+00  0.00000000E+00
  0.00000000E+00  0.00000000E+00  0.00000000E+00
  0.00000000E+00  0.00000000E+00  0.00000000E+00
  0.00000000E+00  0.00000000E+00  0.00000000E+00
