title                                   
   1.00000000000000     
     3.7305973429967154   -3.7207314612363636   -0.0289004277583709
     0.0289004277583709   -3.7207314612363636   -3.7305973429967154
     1.7885905579266241    3.6286539276539140   -1.7885905579266241
   Al   Ni
     4     4
Direct
  0.7295031843129601  0.2521109050511761  0.4747135658193164
  0.7307523783841056  0.7692476216158944  0.5000000000000000
  0.2478890949488238  0.7704968156870399  0.5252864341806837
  0.0336975832354377  0.4663024167645621 -0.0000000000000000
  0.2322159105903934  0.2677840894096066  0.5000000000000000
  0.0011839860784162 -0.0089137696803768 -0.0071146626605783
  0.5089137696803769  0.4988160139215838  0.0071146626605783
  0.5158440927694863 -0.0158440927694863  0.0000000000000000
 
  0.00000000E+00  0.00000000E+00  0.00000000E+00
  0.00000000E+00  0.00000000E+00  0.00000000E+00
  0.00000000E+00  0.00000000E+00  0.00000000E+00
  0.00000000E+00  0.00000000E+00  0.00000000E+00
  0.00000000E+00  0.00000000E+00  0.00000000E+00
  0.00000000E+00  0.00000000E+00  0.00000000E+00
  0.00000000E+00  0.00000000E+00  0.00000000E+00
  0.00000000E+00  0.00000000E+00  0.00000000E+00
