title                                   
   1.00000000000000     
     3.8864553958955192   -6.2341652258080753    0.0000000000000000
    -7.7643517486846783    3.1177175405777806    0.0000000000000000
     0.0000000000000000    0.0000000000000000   -3.8880231377645975
   Al   Ni
     5     7
Direct
  0.2002721042707180  0.8789565934666889  0.0000000000000000
  0.6492636302090977  0.8158654034854605  0.5000000000000000
  0.4663945623959463  0.4543767398666468  0.0000000000000000
  0.8333333333333357  0.1666666666666643  0.0000000000000000
  0.0174030364575667  0.5174679298478750  0.5000000000000000
  0.3333333333333357  0.6666666666666643  0.0000000000000000
  0.8333333333333357  0.6666666666666643  0.5000000000000000
  0.7154606812797598  0.3701548438884060  0.0000000000000000
  0.1444051413228263  0.3150075362817434  0.5000000000000000
  0.3333333333333357  0.1666666666666643  0.5000000000000000
 -0.0487940146130952 -0.0368215105550702  0.0000000000000000
  0.5222615253438379  0.0183257970515922  0.5000000000000000
 
  0.00000000E+00  0.00000000E+00  0.00000000E+00
  0.00000000E+00  0.00000000E+00  0.00000000E+00
  0.00000000E+00  0.00000000E+00  0.00000000E+00
  0.00000000E+00  0.00000000E+00  0.00000000E+00
  0.00000000E+00  0.00000000E+00  0.00000000E+00
  0.00000000E+00  0.00000000E+00  0.00000000E+00
  0.00000000E+00  0.00000000E+00  0.00000000E+00
  0.00000000E+00  0.00000000E+00  0.00000000E+00
  0.00000000E+00  0.00000000E+00  0.00000000E+00
  0.00000000E+00  0.00000000E+00  0.00000000E+00
  0.00000000E+00  0.00000000E+00  0.00000000E+00
  0.00000000E+00  0.00000000E+00  0.00000000E+00
