title                                   
   1.00000000000000     
     5.9041781859009417   -5.9041781859009417    3.8060272913401314
    -5.9041781859009417    5.9041781859009417    3.8060272913401314
    -1.9790313947768376   -1.9790313947768379   -0.0000000000000000
   Al   Ni
    10     2
Direct
  0.2229460147744871  0.3896126814411586  0.5000000000000000
  0.3417008087780964  0.1837716146464851  0.5000000000000000
  0.4916325245552393 -0.0171049479798208  0.5000000000000000
  0.6737375306873915  0.3262624693126086  0.0000000000000000
  0.6103873185588417  0.7770539852255131  0.5000000000000000
  0.8395636479395091  0.1604363520604911  0.0000000000000000
  0.8162283853535147  0.6582991912219038  0.5000000000000000
 -0.0062303146061732  0.0062303146061732  0.0000000000000000
  0.0171049479798208  0.5083674754447605  0.5000000000000000
  0.1595958026459371  0.8404041973540629  0.0000000000000000
  0.3188237777626791  0.6811762222373208  0.0000000000000000
  0.5145095555706565  0.4854904444293434  0.0000000000000000
 
  0.00000000E+00  0.00000000E+00  0.00000000E+00
  0.00000000E+00  0.00000000E+00  0.00000000E+00
  0.00000000E+00  0.00000000E+00  0.00000000E+00
  0.00000000E+00  0.00000000E+00  0.00000000E+00
  0.00000000E+00  0.00000000E+00  0.00000000E+00
  0.00000000E+00  0.00000000E+00  0.00000000E+00
  0.00000000E+00  0.00000000E+00  0.00000000E+00
  0.00000000E+00  0.00000000E+00  0.00000000E+00
  0.00000000E+00  0.00000000E+00  0.00000000E+00
  0.00000000E+00  0.00000000E+00  0.00000000E+00
  0.00000000E+00  0.00000000E+00  0.00000000E+00
  0.00000000E+00  0.00000000E+00  0.00000000E+00
