title
1.
5.280000000 -5.280000000 3.520000000
-5.280000000 5.280000000 3.520000000
-1.760000000 -1.760000000 0.000000000
10 2
Cartesian
-1.760000000 0.000000000 1.760000000    Al
0.000000000 -1.760000000 1.760000000    Al
-3.520000000 1.760000000 5.280000000    Al
0.000000000 -3.520000000 3.520000000    Al
-1.760000000 0.000000000 5.280000000    Al
1.760000000 -5.280000000 3.520000000    Al
0.000000000 -1.760000000 5.280000000    Al
-1.760000000 -1.760000000 7.040000000    Al
1.760000000 -3.520000000 5.280000000    Al
-5.280000000 1.760000000 3.520000000    Al
-3.520000000 0.000000000 3.520000000    Ni_pv
-1.760000000 -1.760000000 3.520000000    Ni_pv
