title                                   
   1.00000000000000     
    -3.5408918874967408   -3.5408918874967408   -0.0000000000000000
    -3.5408918874967408    3.5408918874967408    0.0000000000000000
     0.0000000000000000   -0.0000000000000000   -3.5415425167555790
   Al   Ni
     1     7
Direct
  0.7500000000000000  0.7500000000000000  0.5000000000000000
  0.7500000000000000  0.2500000000000000  0.5000000000000000
  0.4973796156067272  0.4973796156067272  0.0000000000000000
  0.4973796156067272  0.0026203843932728 -0.0000000000000000
  0.2500000000000000  0.7500000000000000  0.5000000000000000
  0.2500000000000000  0.2500000000000000  0.5000000000000000
  0.0026203843932728  0.4973796156067272  0.0000000000000000
  0.0026203843932728  0.0026203843932728  0.0000000000000000
 
  0.00000000E+00  0.00000000E+00  0.00000000E+00
  0.00000000E+00  0.00000000E+00  0.00000000E+00
  0.00000000E+00  0.00000000E+00  0.00000000E+00
  0.00000000E+00  0.00000000E+00  0.00000000E+00
  0.00000000E+00  0.00000000E+00  0.00000000E+00
  0.00000000E+00  0.00000000E+00  0.00000000E+00
  0.00000000E+00  0.00000000E+00  0.00000000E+00
  0.00000000E+00  0.00000000E+00  0.00000000E+00
