title                                   
   1.00000000000000     
     4.0438847590589990    1.7807209841025637    2.0528241167165171
     2.0528241167165167    1.7807209841025637    4.0438847590589990
     1.8025846372146599   -6.4721261434495085    1.8025846372146599
   Al   Ni
     4     3
Direct
  0.8911088963900882  0.8911088963900882  0.3822705719152028
  0.1596092340522920  0.1596092340522920  0.5503365819958779
  0.4118193373762846  0.4118193373762846  0.7353777037184068
  0.6803196750384812  0.6803196750384812  0.9034437137990819
 -0.0210090028276886 -0.0210090028276886  0.0048802597599401
  0.2857142857142847  0.2857142857142847  0.1428571428571459
  0.5924375742562583  0.5924375742562583  0.2808340259543447
 
  0.00000000E+00  0.00000000E+00  0.00000000E+00
  0.00000000E+00  0.00000000E+00  0.00000000E+00
  0.00000000E+00  0.00000000E+00  0.00000000E+00
  0.00000000E+00  0.00000000E+00  0.00000000E+00
  0.00000000E+00  0.00000000E+00  0.00000000E+00
  0.00000000E+00  0.00000000E+00  0.00000000E+00
  0.00000000E+00  0.00000000E+00  0.00000000E+00
