title                                   
   1.00000000000000     
    -5.4751665069999058    5.4751665069999058    7.4022102337434994
    -5.4751665069999040    7.4022102337434976    5.4751665069999049
    -7.4022102337434976    5.4751665069999067    5.4751665069999067
   Al   Ni
     3     2
Direct
  0.1902710632489786  0.1902710632489786  0.1902710632489786
  0.0097289367510243  0.0097289367510243  0.0097289367510243
  0.6000000000000014  0.6000000000000014  0.6000000000000014
  0.7979510637776315  0.7979510637776315  0.7979510637776315
  0.4020489362223714  0.4020489362223714  0.4020489362223714
 
  0.00000000E+00  0.00000000E+00  0.00000000E+00
  0.00000000E+00  0.00000000E+00  0.00000000E+00
  0.00000000E+00  0.00000000E+00  0.00000000E+00
  0.00000000E+00  0.00000000E+00  0.00000000E+00
  0.00000000E+00  0.00000000E+00  0.00000000E+00
