title                                   
   1.00000000000000     
    -5.4751665069999058    5.4751665069999058    7.4022102337434994
    -5.4751665069999040    7.4022102337434976    5.4751665069999049
    -7.4022102337434976    5.4751665069999067    5.4751665069999067
   Al   Ni
     3     2
Direct
  0.1902710632489808  0.1902710632489808  0.1902710632489809
  0.0097289367510220  0.0097289367510220  0.0097289367510220
  0.6000000000000014  0.6000000000000014  0.6000000000000014
  0.7979510637776284  0.7979510637776284  0.7979510637776284
  0.4020489362223746  0.4020489362223746  0.4020489362223746
 
  0.00000000E+00  0.00000000E+00  0.00000000E+00
  0.00000000E+00  0.00000000E+00  0.00000000E+00
  0.00000000E+00  0.00000000E+00  0.00000000E+00
  0.00000000E+00  0.00000000E+00  0.00000000E+00
  0.00000000E+00  0.00000000E+00  0.00000000E+00
