title
1.
-5.280000000 5.280000000 7.040000000
-5.280000000 7.040000000 5.280000000
-7.040000000 5.280000000 5.280000000
3 2
Cartesian
-3.520000000 3.520000000 3.520000000    Al
-17.600000000 17.600000000 17.600000000    Al
-10.560000000 10.560000000 10.560000000    Al
-14.080000000 14.080000000 14.080000000    Ni_pv
-7.040000000 7.040000000 7.040000000    Ni_pv
