title                                   
   1.00000000000000     
    -3.8816695280411970   -1.8174098903494391   -1.9214717890199864
    -1.9214717890199864   -1.8174098903494391   -3.8816695280411970
     1.9670052032395897   -3.7299781671685563    1.9670052032395897
   Al   Ni
     3     1
Direct
  0.9840151106881621  0.9840151106881621  0.9857590770359721
  0.7500000000000000  0.7500000000000000  0.2500000000000000
  0.5159848893118379  0.5159848893118379  0.5142409229640279
  0.2500000000000000  0.2500000000000000  0.7500000000000000
 
  0.00000000E+00  0.00000000E+00  0.00000000E+00
  0.00000000E+00  0.00000000E+00  0.00000000E+00
  0.00000000E+00  0.00000000E+00  0.00000000E+00
  0.00000000E+00  0.00000000E+00  0.00000000E+00
