title                                   
   1.00000000000000     
    -5.7756877478111077   -3.8579560032443547   -1.5968670722835332
    -3.8579560032443547   -5.7756877478111077   -1.5968670722835330
    -0.0273320130319833   -0.0273320130319833    6.4025871079188477
   Al   Ni
     4     6
Direct
  0.4082843485798876  0.4082843485798876  0.6624651369837204
  0.2151470409381607  0.2151470409381607  0.0904194557589700
  0.1848529590618450  0.1848529590618450  0.6095805442410331
 -0.0082843485798890 -0.0082843485798890  0.0375348630162824
  0.3927702752574950  0.3927702752574950  0.2172690168382775
  0.0072297247425034  0.0072297247425034  0.4827309831617255
  0.8080679556184662  0.8080679556184662  0.8680421906627290
  0.7900693842948751  0.7900693842948751  0.4237112976248122
  0.5919320443815324  0.5919320443815324  0.8319578093372668
  0.6099306157051235  0.6099306157051235  0.2762887023751835
 
  0.00000000E+00  0.00000000E+00  0.00000000E+00
  0.00000000E+00  0.00000000E+00  0.00000000E+00
  0.00000000E+00  0.00000000E+00  0.00000000E+00
  0.00000000E+00  0.00000000E+00  0.00000000E+00
  0.00000000E+00  0.00000000E+00  0.00000000E+00
  0.00000000E+00  0.00000000E+00  0.00000000E+00
  0.00000000E+00  0.00000000E+00  0.00000000E+00
  0.00000000E+00  0.00000000E+00  0.00000000E+00
  0.00000000E+00  0.00000000E+00  0.00000000E+00
  0.00000000E+00  0.00000000E+00  0.00000000E+00
