title
1.
-5.280000000 -3.520000000 -1.760000000
-3.520000000 -5.280000000 -1.760000000
0.000000000 0.000000000 7.040000000
4 6
Cartesian
-3.520000000 -3.520000000 3.520000000    Al
-1.760000000 -1.760000000 -0.000000000    Al
-1.760000000 -1.760000000 3.520000000    Al
-8.800000000 -8.800000000 3.520000000    Al
-3.520000000 -3.520000000 -0.000000000    Ni_pv
-8.800000000 -8.800000000 0.000000000    Ni_pv
-7.040000000 -7.040000000 3.520000000    Ni_pv
-7.040000000 -7.040000000 0.000000000    Ni_pv
-5.280000000 -5.280000000 3.520000000    Ni_pv
-5.280000000 -5.280000000 0.000000000    Ni_pv
