title                                   
   1.00000000000000     
     1.7778904496745371    1.6722891714339865    3.7474607925789902
     3.7474607925789902    1.6722891714339865    1.7778904496745371
    -3.7937536875718552    3.6538741025435657   -3.7937536875718552
   Al   Ni
     3     2
Direct
  0.8069337104601684  0.8069337104601684  0.1997208942156855
 -0.0069337104601712 -0.0069337104601712  0.0002791057843173
  0.3999999999999986  0.3999999999999986  0.6000000000000014
  0.1991530729307177  0.1991530729307177  0.8139850076921916
  0.6008469270692868  0.6008469270692868  0.3860149923078047
 
  0.00000000E+00  0.00000000E+00  0.00000000E+00
  0.00000000E+00  0.00000000E+00  0.00000000E+00
  0.00000000E+00  0.00000000E+00  0.00000000E+00
  0.00000000E+00  0.00000000E+00  0.00000000E+00
  0.00000000E+00  0.00000000E+00  0.00000000E+00
