title                                   
   1.00000000000000     
    -1.7822619863702658   -5.6176425352914698    0.0000000000000000
    -1.7822619863702658    5.6176425352914698    0.0000000000000000
     1.7822619863702658    0.0000000000000000   -5.2511956989973241
   Al   Ni
     3     6
Direct
  0.9861591364908264  0.3346193838607903  0.3207785203516238
  0.0151472020085990  0.6818138686752633  0.6969610706838694
  0.6679527171941189  0.6528258031574907  0.3207785203516238
  0.9975215702733351  0.0045908231723146  0.0021123934456426
  0.6656672414414899  0.9941862519678395  0.6598534934093294
  0.3363855680555901  0.0030522347222544  0.3394378027778515
  0.6657228227292080  0.3323894893958794  0.9981123121250945
  0.3275195853011752  0.3323339081081613  0.6598534934093294
  0.3379241565056503  0.6641882369399994  0.0021123934456426
 
  0.00000000E+00  0.00000000E+00  0.00000000E+00
  0.00000000E+00  0.00000000E+00  0.00000000E+00
  0.00000000E+00  0.00000000E+00  0.00000000E+00
  0.00000000E+00  0.00000000E+00  0.00000000E+00
  0.00000000E+00  0.00000000E+00  0.00000000E+00
  0.00000000E+00  0.00000000E+00  0.00000000E+00
  0.00000000E+00  0.00000000E+00  0.00000000E+00
  0.00000000E+00  0.00000000E+00  0.00000000E+00
  0.00000000E+00  0.00000000E+00  0.00000000E+00
