title                                   
   1.00000000000000     
    -1.7822619863702658   -5.6176425352914698    0.0000000000000000
    -1.7822619863702658    5.6176425352914698    0.0000000000000000
     1.7822619863702658    0.0000000000000000   -5.2511956989973241
   Al   Ni
     3     6
Direct
 -0.0138408635091711  0.3346193838607920  0.3207785203516210
  0.0151472020086022  0.6818138686752666  0.6969610706838685
  0.6679527171941204  0.6528258031574933  0.3207785203516210
 -0.0024784297266666  0.0045908231723113  0.0021123934456447
  0.6656672414414877 -0.0058137480321587  0.6598534934093290
  0.3363855680555931  0.0030522347222573  0.3394378027778504
  0.6657228227292100  0.3323894893958815 -0.0018876878749086
  0.3275195853011769  0.3323339081081593  0.6598534934093290
  0.3379241565056471  0.6641882369399975  0.0021123934456447
 
  0.00000000E+00  0.00000000E+00  0.00000000E+00
  0.00000000E+00  0.00000000E+00  0.00000000E+00
  0.00000000E+00  0.00000000E+00  0.00000000E+00
  0.00000000E+00  0.00000000E+00  0.00000000E+00
  0.00000000E+00  0.00000000E+00  0.00000000E+00
  0.00000000E+00  0.00000000E+00  0.00000000E+00
  0.00000000E+00  0.00000000E+00  0.00000000E+00
  0.00000000E+00  0.00000000E+00  0.00000000E+00
  0.00000000E+00  0.00000000E+00  0.00000000E+00
