title                                   
   1.00000000000000     
     1.8497572729798362    0.0000000000000000    5.6011321329408288
    -5.6011321329408288    0.0000000000000000   -1.8497572729798362
     0.0000000000000000   -3.3585472670326966    0.0000000000000000
   Al   Ni
     3     5
Direct
  0.1163659921226952  0.3836340078773048  0.5000000000000000
  0.3750000000000000  0.1250000000000000  0.5000000000000000
  0.6336340078773048  0.8663659921226952  0.5000000000000000
  0.7471119539073925  0.2487167439271474  0.0000000000000000
  0.0028880460926075  0.0012832560728526  0.0000000000000000
  0.8750000000000000  0.6250000000000000  0.5000000000000000
  0.2512832560728526  0.7528880460926075  0.0000000000000000
  0.4987167439271474  0.4971119539073925  0.0000000000000000
 
  0.00000000E+00  0.00000000E+00  0.00000000E+00
  0.00000000E+00  0.00000000E+00  0.00000000E+00
  0.00000000E+00  0.00000000E+00  0.00000000E+00
  0.00000000E+00  0.00000000E+00  0.00000000E+00
  0.00000000E+00  0.00000000E+00  0.00000000E+00
  0.00000000E+00  0.00000000E+00  0.00000000E+00
  0.00000000E+00  0.00000000E+00  0.00000000E+00
  0.00000000E+00  0.00000000E+00  0.00000000E+00
