title                                   
   1.00000000000000     
     1.9580306314294631   -3.8876156495521554    1.9284073335791583
    -3.8876156495521554    1.9580306314294631    1.9284073335791583
    -1.9730582788181594   -1.9730582788181592   -3.9001172589459672
   Al   Ni
     5     1
Direct
  0.6607441176946266  0.3392558823053735 -0.0000000000000000
  0.0000000000000000  0.0000000000000000  0.0000000000000000
  0.8330577495571363  0.1669422504428638  0.5000000000000000
  0.3392558823053735  0.6607441176946266  0.0000000000000000
  0.1669422504428638  0.8330577495571363  0.5000000000000000
  0.5000000000000000  0.5000000000000000  0.5000000000000000
 
  0.00000000E+00  0.00000000E+00  0.00000000E+00
  0.00000000E+00  0.00000000E+00  0.00000000E+00
  0.00000000E+00  0.00000000E+00  0.00000000E+00
  0.00000000E+00  0.00000000E+00  0.00000000E+00
  0.00000000E+00  0.00000000E+00  0.00000000E+00
  0.00000000E+00  0.00000000E+00  0.00000000E+00
