title                                   
   1.00000000000000     
    -5.7331419456742205    3.2356025493309128   -1.9116793591053725
    -5.7331419456742205   -3.2356025493309128    1.9116793591053725
     5.7331419456742205    3.2356025493309128    1.9116793591053725
   Al   Ni
     5     7
Direct
  0.8164696498821797  0.3164696498821797  0.5000000000000000
  0.5168636834511560  0.0168636834511560  0.5000000000000000
  0.3415215287733346  0.3415215287733346  0.0000000000000000
  0.9918118045600011  0.9918118045600011  0.0000000000000000
  0.1666666666666643  0.6666666666666643  0.5000000000000000
  0.2373783298763996  0.4989649638990556  0.7384133659773440
  0.9389581789213892  0.1666666666666643  0.7722915122547249
  0.7605515979217188  0.4989649638990556  0.2615866340226560
  0.5727817354116169  0.8343683694342801  0.7384133659773440
  0.3943751544119394  0.1666666666666643  0.2277084877452751
  0.0959550034569361  0.8343683694342801  0.2615866340226560
  0.6666666666666643  0.6666666666666643  0.0000000000000000
 
  0.00000000E+00  0.00000000E+00  0.00000000E+00
  0.00000000E+00  0.00000000E+00  0.00000000E+00
  0.00000000E+00  0.00000000E+00  0.00000000E+00
  0.00000000E+00  0.00000000E+00  0.00000000E+00
  0.00000000E+00  0.00000000E+00  0.00000000E+00
  0.00000000E+00  0.00000000E+00  0.00000000E+00
  0.00000000E+00  0.00000000E+00  0.00000000E+00
  0.00000000E+00  0.00000000E+00  0.00000000E+00
  0.00000000E+00  0.00000000E+00  0.00000000E+00
  0.00000000E+00  0.00000000E+00  0.00000000E+00
  0.00000000E+00  0.00000000E+00  0.00000000E+00
  0.00000000E+00  0.00000000E+00  0.00000000E+00
