title                                   
   1.00000000000000     
    -5.7331419456742205    3.2356025493309128   -1.9116793591053725
    -5.7331419456742205   -3.2356025493309128    1.9116793591053725
     5.7331419456742205    3.2356025493309128    1.9116793591053725
   Al   Ni
     5     7
Direct
  0.8164696498821818  0.3164696498821816  0.5000000000000000
  0.5168636834511539  0.0168636834511540  0.5000000000000000
  0.3415215287733347  0.3415215287733347  0.0000000000000000
 -0.0081881954399990 -0.0081881954399990  0.0000000000000000
  0.1666666666666643  0.6666666666666643  0.5000000000000000
  0.2373783298763979  0.4989649638990573  0.7384133659773406
  0.9389581789213900  0.1666666666666643  0.7722915122547257
  0.7605515979217167  0.4989649638990573  0.2615866340226594
  0.5727817354116190  0.8343683694342785  0.7384133659773406
  0.3943751544119385  0.1666666666666643  0.2277084877452744
  0.0959550034569379  0.8343683694342785  0.2615866340226594
  0.6666666666666643  0.6666666666666643  0.0000000000000000
 
  0.00000000E+00  0.00000000E+00  0.00000000E+00
  0.00000000E+00  0.00000000E+00  0.00000000E+00
  0.00000000E+00  0.00000000E+00  0.00000000E+00
  0.00000000E+00  0.00000000E+00  0.00000000E+00
  0.00000000E+00  0.00000000E+00  0.00000000E+00
  0.00000000E+00  0.00000000E+00  0.00000000E+00
  0.00000000E+00  0.00000000E+00  0.00000000E+00
  0.00000000E+00  0.00000000E+00  0.00000000E+00
  0.00000000E+00  0.00000000E+00  0.00000000E+00
  0.00000000E+00  0.00000000E+00  0.00000000E+00
  0.00000000E+00  0.00000000E+00  0.00000000E+00
  0.00000000E+00  0.00000000E+00  0.00000000E+00
