title
1.
-5.280000000 3.520000000 -1.760000000
-5.280000000 -3.520000000 1.760000000
5.280000000 3.520000000 1.760000000
5 7
Cartesian
-3.520000000 3.520000000 0.000000000    Al
-5.280000000 0.000000000 1.760000000    Al
1.760000000 3.520000000 1.760000000    Al
-5.280000000 3.520000000 1.760000000    Al
-1.760000000 0.000000000 1.760000000    Al
0.000000000 1.760000000 1.760000000    Ni_pv
-1.760000000 5.280000000 0.000000000    Ni_pv
-5.280000000 1.760000000 0.000000000    Ni_pv
-3.520000000 1.760000000 1.760000000    Ni_pv
-1.760000000 1.760000000 0.000000000    Ni_pv
-3.520000000 -1.760000000 1.760000000    Ni_pv
-1.760000000 3.520000000 1.760000000    Ni_pv
