title                                   
   1.00000000000000     
     1.7848723105769804   -3.8189105832467778    1.9097309295315481
     1.7848723105769804   -3.8189105832467778   -1.9097309295315481
     3.3804608573559256    3.7113737259117641    0.0000000000000000
   Al   Ni
     3     3
Direct
  0.9878346741430875  0.9878346741430875  0.9446851804484027
  0.3333333333333357  0.3333333333333357  0.1666666666666643
  0.6788319925235768  0.6788319925235768  0.3886481528849330
  0.9945534221933556  0.9945534221933556  0.4568497396685913
  0.3333333333333357  0.3333333333333357  0.6666666666666643
  0.6721132444733087  0.6721132444733087  0.8764835936647444
 
  0.00000000E+00  0.00000000E+00  0.00000000E+00
  0.00000000E+00  0.00000000E+00  0.00000000E+00
  0.00000000E+00  0.00000000E+00  0.00000000E+00
  0.00000000E+00  0.00000000E+00  0.00000000E+00
  0.00000000E+00  0.00000000E+00  0.00000000E+00
  0.00000000E+00  0.00000000E+00  0.00000000E+00
