title                                   
   1.00000000000000     
     1.7848723105769804   -3.8189105832467778    1.9097309295315481
     1.7848723105769804   -3.8189105832467778   -1.9097309295315481
     3.3804608573559256    3.7113737259117641    0.0000000000000000
   Al   Ni
     3     3
Direct
 -0.0121653258569117 -0.0121653258569117 -0.0553148195515977
  0.3333333333333357  0.3333333333333357  0.1666666666666643
  0.6788319925235763  0.6788319925235763  0.3886481528849334
 -0.0054465778066455 -0.0054465778066455  0.4568497396685913
  0.3333333333333357  0.3333333333333357  0.6666666666666643
  0.6721132444733100  0.6721132444733100  0.8764835936647445
 
  0.00000000E+00  0.00000000E+00  0.00000000E+00
  0.00000000E+00  0.00000000E+00  0.00000000E+00
  0.00000000E+00  0.00000000E+00  0.00000000E+00
  0.00000000E+00  0.00000000E+00  0.00000000E+00
  0.00000000E+00  0.00000000E+00  0.00000000E+00
  0.00000000E+00  0.00000000E+00  0.00000000E+00
