title                                   
   1.00000000000000     
    -1.9221315581671254   -1.9221315581671254   -6.3155225476675483
     1.9221315581671254    1.9221315581671254   -6.3155225476675483
     1.9221315581671254   -1.9221315581671254    6.3155225476675483
   Al   Ni
     3     5
Direct
  0.3721213654934069  0.8721213654934066  0.5000000000000000
  0.6250000000000000  0.1250000000000000  0.5000000000000000
  0.8778786345065934  0.3778786345065931  0.5000000000000000
  0.7521916843386878  0.7521916843386878 -0.0000000000000000
 -0.0021916843386880 -0.0021916843386880  0.0000000000000000
  0.2521916843386880  0.2521916843386880 -0.0000000000000000
  0.1250000000000000  0.6250000000000000  0.5000000000000000
  0.4978083156613120  0.4978083156613120  0.0000000000000000
 
  0.00000000E+00  0.00000000E+00  0.00000000E+00
  0.00000000E+00  0.00000000E+00  0.00000000E+00
  0.00000000E+00  0.00000000E+00  0.00000000E+00
  0.00000000E+00  0.00000000E+00  0.00000000E+00
  0.00000000E+00  0.00000000E+00  0.00000000E+00
  0.00000000E+00  0.00000000E+00  0.00000000E+00
  0.00000000E+00  0.00000000E+00  0.00000000E+00
  0.00000000E+00  0.00000000E+00  0.00000000E+00
