title                                   
   1.00000000000000     
     4.0046290213475784    3.3011996379736783    4.0046290213475793
    -4.0046290213475784    3.3011996379736783   -4.0046290213475793
    -1.9552967711898264   -0.0000000000000000    1.9552967711898264
   Al   Ni
     5     3
Direct
  0.1515136878450677  0.4183754241326754  0.5000000000000000
 -0.0000000000000000 -0.0000000000000000  0.0000000000000000
  0.4183754241326754  0.1515136878450677  0.5000000000000000
  0.5816245758673245  0.8484863121549322  0.5000000000000000
  0.8484863121549322  0.5816245758673246  0.5000000000000000
  0.2238983918205318  0.7761016081794683 -0.0000000000000000
  0.5000000000000000  0.5000000000000000  0.0000000000000000
  0.7761016081794683  0.2238983918205318 -0.0000000000000000
 
  0.00000000E+00  0.00000000E+00  0.00000000E+00
  0.00000000E+00  0.00000000E+00  0.00000000E+00
  0.00000000E+00  0.00000000E+00  0.00000000E+00
  0.00000000E+00  0.00000000E+00  0.00000000E+00
  0.00000000E+00  0.00000000E+00  0.00000000E+00
  0.00000000E+00  0.00000000E+00  0.00000000E+00
  0.00000000E+00  0.00000000E+00  0.00000000E+00
  0.00000000E+00  0.00000000E+00  0.00000000E+00
