title                                   
   1.00000000000000     
     1.7971331812128011   -3.5563965661339556    1.8307733764701404
    -3.5563965661339556    1.7971331812128011    1.8307733764701404
    -1.8021582500175721   -1.8021582500175721   -3.7060785862658530
   Al   Ni
     2     4
Direct
  0.6493798006243005  0.3506201993756998 -0.0000000000000000
  0.8506201993756995  0.1493798006243002  0.5000000000000000
 -0.0093351161495493  0.0093351161495493  0.0000000000000000
  0.3227222462410500  0.6772777537589499  0.0000000000000000
  0.1772777537589499  0.8227222462410501  0.5000000000000000
  0.5093351161495495  0.4906648838504508  0.5000000000000000
 
  0.00000000E+00  0.00000000E+00  0.00000000E+00
  0.00000000E+00  0.00000000E+00  0.00000000E+00
  0.00000000E+00  0.00000000E+00  0.00000000E+00
  0.00000000E+00  0.00000000E+00  0.00000000E+00
  0.00000000E+00  0.00000000E+00  0.00000000E+00
  0.00000000E+00  0.00000000E+00  0.00000000E+00
