title                                   
   1.00000000000000     
     1.8670366845606325   -3.3423742262134399    1.8580894743573386
     1.8670366845606325   -3.3423742262134399   -1.8580894743573386
     3.7386040476134275    3.3439685064332036    0.0000000000000000
   Al   Ni
     2     4
Direct
  0.9890065383041602  0.9890065383041602  0.9755796549302929
  0.6776601283625041  0.6776601283625041  0.3577536784030428
  0.3333333333333357  0.3333333333333357  0.1666666666666643
  0.0056700451055605  0.0056700451055605  0.4879905956957913
  0.3333333333333357  0.3333333333333357  0.6666666666666643
  0.6609966215611038  0.6609966215611038  0.8453427376375444
 
  0.00000000E+00  0.00000000E+00  0.00000000E+00
  0.00000000E+00  0.00000000E+00  0.00000000E+00
  0.00000000E+00  0.00000000E+00  0.00000000E+00
  0.00000000E+00  0.00000000E+00  0.00000000E+00
  0.00000000E+00  0.00000000E+00  0.00000000E+00
  0.00000000E+00  0.00000000E+00  0.00000000E+00
