title                                   
   1.00000000000000     
     0.0000000000000000   -3.5478996940032816    0.0000000000000000
    -3.5478996940032816    0.0000000000000000    0.0000000000000000
     0.0000000000000000    0.0000000000000000   -7.0658595981558285
   Al   Ni
     1     7
Direct
  0.5000000000000000  0.5000000000000000  0.5000000000000000
  0.5000000000000000  0.5000000000000000  0.0000000000000000
  0.0000000000000000  0.5000000000000000  0.7537130581388709
  0.5000000000000000  0.0000000000000000  0.7537130581388709
  0.0000000000000000  0.0000000000000000  0.5000000000000000
  0.0000000000000000  0.5000000000000000  0.2462869418611291
  0.5000000000000000  0.0000000000000000  0.2462869418611291
  0.0000000000000000  0.0000000000000000  0.0000000000000000
 
  0.00000000E+00  0.00000000E+00  0.00000000E+00
  0.00000000E+00  0.00000000E+00  0.00000000E+00
  0.00000000E+00  0.00000000E+00  0.00000000E+00
  0.00000000E+00  0.00000000E+00  0.00000000E+00
  0.00000000E+00  0.00000000E+00  0.00000000E+00
  0.00000000E+00  0.00000000E+00  0.00000000E+00
  0.00000000E+00  0.00000000E+00  0.00000000E+00
  0.00000000E+00  0.00000000E+00  0.00000000E+00
