title                                   
   1.00000000000000     
     0.0000000000000000   -1.8324928948719927   -5.5540905945549746
     0.0000000000000000   -1.8324928948719927    5.5540905945549746
    -3.4202421462192021    0.0000000000000000    0.0000000000000000
   Al   Ni
     2     4
Direct
  0.8429100048387099  0.1570899951612900  0.5000000000000000
  0.1570899951612900  0.8429100048387099  0.5000000000000000
 -0.0000000000000000  0.0000000000000000  0.0000000000000000
  0.5000000000000000  0.5000000000000000  0.5000000000000000
  0.3323983718630986  0.6676016281369012  0.0000000000000000
  0.6676016281369012  0.3323983718630986 -0.0000000000000000
 
  0.00000000E+00  0.00000000E+00  0.00000000E+00
  0.00000000E+00  0.00000000E+00  0.00000000E+00
  0.00000000E+00  0.00000000E+00  0.00000000E+00
  0.00000000E+00  0.00000000E+00  0.00000000E+00
  0.00000000E+00  0.00000000E+00  0.00000000E+00
  0.00000000E+00  0.00000000E+00  0.00000000E+00
