title                                   
   1.00000000000000     
    -1.9797611229742473   -1.9797611229742473   -0.0000000000000000
     1.9797611229742473   -1.9797611229742473   -0.0000000000000000
    -0.0000000000000000   -0.0000000000000000    6.4419117912127728
   Al   Ni
     2     2
Direct
  0.5000000000000000  0.5000000000000000  0.2862360108246049
  0.0000000000000000  0.0000000000000000 -0.0362360108246048
  0.5000000000000000  0.5000000000000000  0.7474651547332181
 -0.0000000000000000 -0.0000000000000000  0.5025348452667820
 
  0.00000000E+00  0.00000000E+00  0.00000000E+00
  0.00000000E+00  0.00000000E+00  0.00000000E+00
  0.00000000E+00  0.00000000E+00  0.00000000E+00
  0.00000000E+00  0.00000000E+00  0.00000000E+00
