title                                   
   1.00000000000000     
     0.0000000000000000   -1.9408061942664347   -4.5941331646369168
     0.0000000000000000    1.9408061942664347   -4.5941331646369168
     1.9408061942664347    0.0000000000000000    4.5941331646369168
   Al   Ni
     1     2
Direct
  0.6666666666666643  0.6666666666666643  0.0000000000000000
  0.0039963016497850  0.0039963016497850  0.0000000000000000
  0.3293370316835507  0.3293370316835507  0.0000000000000000
 
  0.00000000E+00  0.00000000E+00  0.00000000E+00
  0.00000000E+00  0.00000000E+00  0.00000000E+00
  0.00000000E+00  0.00000000E+00  0.00000000E+00
