title
1.
-0.000000000 -1.760000000 -5.280000000
0.000000000 1.760000000 -5.280000000
1.760000000 0.000000000 5.280000000
1 2
Cartesian
1.760000000 0.000000000 -1.760000000    Al
1.760000000 0.000000000 -5.280000000    Ni_pv
1.760000000 0.000000000 1.760000000    Ni_pv
