title                                   
   1.00000000000000     
     1.8926846035824023   -3.8603214942760906    1.9377896100768726
    -3.8603214942760902    1.8926846035824021    1.9377896100768726
    -1.7601178825142787   -1.7601178825142787   -3.6693703155836248
   Al   Ni
     4     2
Direct
  0.6605282870733022  0.3394717129266976  0.0000000000000000
  0.0061383795933620 -0.0061383795933620 -0.0000000000000000
  0.8333333333333357  0.1666666666666643  0.5000000000000000
  0.3333333333333357  0.6666666666666643 -0.0000000000000000
  0.1643888594950201  0.8356111405049796  0.5000000000000000
  0.5022778071716439  0.4977221928283557  0.5000000000000000
 
  0.00000000E+00  0.00000000E+00  0.00000000E+00
  0.00000000E+00  0.00000000E+00  0.00000000E+00
  0.00000000E+00  0.00000000E+00  0.00000000E+00
  0.00000000E+00  0.00000000E+00  0.00000000E+00
  0.00000000E+00  0.00000000E+00  0.00000000E+00
  0.00000000E+00  0.00000000E+00  0.00000000E+00
