title                                   
   1.00000000000000     
     1.8155301613154631    1.5617397997741937    3.7480666860642851
     3.7480666860642846    1.5617397997741937    1.8155301613154629
    -3.8298191208164991    3.4390934673816926   -3.8298191208165000
   Al   Ni
     2     3
Direct
  0.8040004508742913  0.8040004508742913  0.2301698369423426
  0.1959995491257087  0.1959995491257087  0.7698301630576572
 -0.0000000000000000  0.0000000000000000 -0.0000000000000000
  0.4093882428332446  0.4093882428332446  0.6156446968783778
  0.5906117571667552  0.5906117571667552  0.3843553031216220
 
  0.00000000E+00  0.00000000E+00  0.00000000E+00
  0.00000000E+00  0.00000000E+00  0.00000000E+00
  0.00000000E+00  0.00000000E+00  0.00000000E+00
  0.00000000E+00  0.00000000E+00  0.00000000E+00
  0.00000000E+00  0.00000000E+00  0.00000000E+00
