title                                   
   1.00000000000000     
     1.8350300089660443   -3.5817943019126082    1.9370523400746669
    -3.5817943019126082    1.8350300089660443    1.9370523400746669
    -1.7718446608221599   -1.7718446608221599   -3.9051762200753486
   Al   Ni
     3     3
Direct
  0.6580588007105658  0.3419411992894342  0.0000000000000000
  0.0086078659560984 -0.0086078659560984  0.0000000000000000
  0.8333333333333357  0.1666666666666643  0.5000000000000000
  0.3333333333333357  0.6666666666666643 -0.0000000000000000
  0.1639906730005908  0.8360093269994091  0.5000000000000000
  0.5026759936660734  0.4973240063339266  0.5000000000000000
 
  0.00000000E+00  0.00000000E+00  0.00000000E+00
  0.00000000E+00  0.00000000E+00  0.00000000E+00
  0.00000000E+00  0.00000000E+00  0.00000000E+00
  0.00000000E+00  0.00000000E+00  0.00000000E+00
  0.00000000E+00  0.00000000E+00  0.00000000E+00
  0.00000000E+00  0.00000000E+00  0.00000000E+00
