title
1.
-3.520000000 0.000000000 -3.520000000
0.000000000 -3.520000000 -3.520000000
-3.520000000 -3.520000000 0.000000000
4 4
Cartesian
-7.040000000 -7.040000000 -7.040000000    Al
-7.040000000 -5.280000000 -5.280000000    Al
-5.280000000 -7.040000000 -5.280000000    Al
-5.280000000 -5.280000000 -7.040000000    Al
-5.280000000 -5.280000000 -3.520000000    Ni_pv
-5.280000000 -3.520000000 -5.280000000    Ni_pv
-3.520000000 -5.280000000 -5.280000000    Ni_pv
-3.520000000 -3.520000000 -3.520000000    Ni_pv
