title                                   
   1.00000000000000     
    -1.9148803362358693   -1.9148803362358693   -0.0000000000000000
     1.9148803362358693   -1.9148803362358693   -0.0000000000000000
    -0.0000000000000000   -0.0000000000000000    6.2082625631567288
   Al   Ni
     1     3
Direct
  0.5000000000000000  0.5000000000000000  0.2500000000000000
  0.5000000000000000  0.5000000000000000  0.7500000000000000
  0.0000000000000000 -0.0000000000000000  0.0020815644469739
 -0.0000000000000000  0.0000000000000000  0.4979184355530261
 
  0.00000000E+00  0.00000000E+00  0.00000000E+00
  0.00000000E+00  0.00000000E+00  0.00000000E+00
  0.00000000E+00  0.00000000E+00  0.00000000E+00
  0.00000000E+00  0.00000000E+00  0.00000000E+00
