title                                   
   1.00000000000000     
     1.9245338801086393   -3.9472889942622329   -1.9199573636692808
     1.9245338801086393   -3.9472889942622329    1.9199573636692808
    -7.5236588353189351    0.0878092486957301    0.0000000000000000
   Al   Ni
     6     2
Direct
  0.7342571774109672  0.7342571774109672  0.1514898701069214
  0.9950554133764555  0.9950554133764555  0.0314365517237860
  0.2473482183660636  0.2473482183660636  0.8862073161999504
  0.5026517816339364  0.5026517816339364  0.7387926838000496
  0.7549445866235445  0.7549445866235445  0.5935634482762140
  0.0157428225890328  0.0157428225890328  0.4735101298930786
  0.2645263979946577  0.2645263979946577  0.3850092727028880
  0.4854736020053423  0.4854736020053423  0.2399907272971120
 
  0.00000000E+00  0.00000000E+00  0.00000000E+00
  0.00000000E+00  0.00000000E+00  0.00000000E+00
  0.00000000E+00  0.00000000E+00  0.00000000E+00
  0.00000000E+00  0.00000000E+00  0.00000000E+00
  0.00000000E+00  0.00000000E+00  0.00000000E+00
  0.00000000E+00  0.00000000E+00  0.00000000E+00
  0.00000000E+00  0.00000000E+00  0.00000000E+00
  0.00000000E+00  0.00000000E+00  0.00000000E+00
