title                                   
   1.00000000000000     
     1.9245338801086393   -3.9472889942622329   -1.9199573636692808
     1.9245338801086393   -3.9472889942622329    1.9199573636692808
    -7.5236588353189351    0.0878092486957301    0.0000000000000000
   Al   Ni
     6     2
Direct
  0.7342571774109684  0.7342571774109684  0.1514898701069245
 -0.0049445866235438 -0.0049445866235438  0.0314365517237881
  0.2473482183660655  0.2473482183660655  0.8862073161999485
  0.5026517816339344  0.5026517816339344  0.7387926838000515
  0.7549445866235440  0.7549445866235440  0.5935634482762120
  0.0157428225890314  0.0157428225890314  0.4735101298930756
  0.2645263979946563  0.2645263979946563  0.3850092727028894
  0.4854736020053437  0.4854736020053437  0.2399907272971105
 
  0.00000000E+00  0.00000000E+00  0.00000000E+00
  0.00000000E+00  0.00000000E+00  0.00000000E+00
  0.00000000E+00  0.00000000E+00  0.00000000E+00
  0.00000000E+00  0.00000000E+00  0.00000000E+00
  0.00000000E+00  0.00000000E+00  0.00000000E+00
  0.00000000E+00  0.00000000E+00  0.00000000E+00
  0.00000000E+00  0.00000000E+00  0.00000000E+00
  0.00000000E+00  0.00000000E+00  0.00000000E+00
