title                                   
   1.00000000000000     
    -3.8708111117723600   -1.9099145579815464    1.9099145579815464
    -3.8708111117723600    1.9099145579815464   -1.9099145579815464
     3.8708111117723600   -1.9099145579815464   -1.9099145579815464
   Al   Ni
     3     1
Direct
 -0.0000000000000000 -0.0000000000000000 -0.0000000000000000
  0.2500000000000000  0.7500000000000000  0.5000000000000000
  0.7500000000000000  0.2500000000000000  0.5000000000000000
  0.5000000000000000  0.5000000000000000 -0.0000000000000000
 
  0.00000000E+00  0.00000000E+00  0.00000000E+00
  0.00000000E+00  0.00000000E+00  0.00000000E+00
  0.00000000E+00  0.00000000E+00  0.00000000E+00
  0.00000000E+00  0.00000000E+00  0.00000000E+00
