title                                   
   1.00000000000000     
     3.2315643887188386    1.8287788037093087    1.8287788037093087
    -3.2315643887188386    1.8287788037093087    1.8287788037093087
    -0.0000000000000000   -1.9223014547332129    1.9223014547332129
   Al   Ni
     1     3
Direct
  0.5000000000000000  0.0000000000000000  0.5000000000000000
  0.5000000000000000  0.5000000000000000 -0.0000000000000000
 -0.0000000000000000 -0.0000000000000000  0.0000000000000000
 -0.0000000000000000  0.5000000000000000  0.5000000000000000
 
  0.00000000E+00  0.00000000E+00  0.00000000E+00
  0.00000000E+00  0.00000000E+00  0.00000000E+00
  0.00000000E+00  0.00000000E+00  0.00000000E+00
  0.00000000E+00  0.00000000E+00  0.00000000E+00
