title                                   
   1.00000000000000     
     0.0000000000000000   -3.8245628790327140    0.0000000000000000
    -3.8245628790327140    0.0000000000000000    0.0000000000000000
     0.0000000000000000    0.0000000000000000   -6.3842021430214544
   Al   Ni
     3     5
Direct
  0.5000000000000000  0.5000000000000000  0.5000000000000000
  0.5000000000000000  0.5000000000000000  0.0000000000000000
  0.0000000000000000  0.0000000000000000  0.5000000000000000
  0.0000000000000000  0.5000000000000000  0.7453598776872710
  0.5000000000000000  0.0000000000000000  0.7453598776872710
  0.0000000000000000  0.5000000000000000  0.2546401223127290
  0.5000000000000000  0.0000000000000000  0.2546401223127290
  0.0000000000000000  0.0000000000000000  0.0000000000000000
 
  0.00000000E+00  0.00000000E+00  0.00000000E+00
  0.00000000E+00  0.00000000E+00  0.00000000E+00
  0.00000000E+00  0.00000000E+00  0.00000000E+00
  0.00000000E+00  0.00000000E+00  0.00000000E+00
  0.00000000E+00  0.00000000E+00  0.00000000E+00
  0.00000000E+00  0.00000000E+00  0.00000000E+00
  0.00000000E+00  0.00000000E+00  0.00000000E+00
  0.00000000E+00  0.00000000E+00  0.00000000E+00
