title                                   
   1.00000000000000     
    -0.0000000000000000    0.0000000000000000    3.5674591894708647
    -0.0000000000000000    3.5674591894708647   -0.0000000000000000
    -3.5674591894708647   -0.0000000000000000   -0.0000000000000000
   Al   Ni
     1     3
Direct
  0.5000000000000000  0.0000000000000000  0.5000000000000000
  0.0000000000000000  0.5000000000000000  0.5000000000000000
  0.0000000000000000  0.0000000000000000  0.0000000000000000
  0.5000000000000000  0.5000000000000000  0.0000000000000000
 
  0.00000000E+00  0.00000000E+00  0.00000000E+00
  0.00000000E+00  0.00000000E+00  0.00000000E+00
  0.00000000E+00  0.00000000E+00  0.00000000E+00
  0.00000000E+00  0.00000000E+00  0.00000000E+00
