title                                   
   1.00000000000000     
     1.6512331264241402   -3.5355070324679141   -5.4691620076334493
     5.3225684042740165   -3.5926922225119644   -1.6590372473464294
    -5.3225684042740156    1.6590372473464299    3.5926922225119644
   Al   Ni
     3     3
Direct
  0.5070065470484622  0.1743658750893289  0.3326406719591333
  0.9876057694909832  0.9827506243576636  0.0048551451333267
  0.0008960354041889  0.6723226296475246  0.3285734057566643
  0.4880382196247979  0.8321605625789843  0.6558776570458136
  0.5095029467812182  0.5086606465335919  0.0008423002476263
  0.0069504816503496  0.3297396617929138  0.6772108198574358
 
  0.00000000E+00  0.00000000E+00  0.00000000E+00
  0.00000000E+00  0.00000000E+00  0.00000000E+00
  0.00000000E+00  0.00000000E+00  0.00000000E+00
  0.00000000E+00  0.00000000E+00  0.00000000E+00
  0.00000000E+00  0.00000000E+00  0.00000000E+00
  0.00000000E+00  0.00000000E+00  0.00000000E+00
