title                                   
   1.00000000000000     
     1.6512331264241402   -3.5355070324679141   -5.4691620076334493
     5.3225684042740165   -3.5926922225119644   -1.6590372473464294
    -5.3225684042740156    1.6590372473464299    3.5926922225119644
   Al   Ni
     3     3
Direct
  0.5070065470484606  0.1743658750893286  0.3326406719591319
 -0.0123942305090144 -0.0172493756423389  0.0048551451333245
  0.0008960354041875  0.6723226296475241  0.3285734057566637
  0.4880382196247975  0.8321605625789819  0.6558776570458156
  0.5095029467812177  0.5086606465335909  0.0008423002476269
  0.0069504816503512  0.3297396617929135  0.6772108198574378
 
  0.00000000E+00  0.00000000E+00  0.00000000E+00
  0.00000000E+00  0.00000000E+00  0.00000000E+00
  0.00000000E+00  0.00000000E+00  0.00000000E+00
  0.00000000E+00  0.00000000E+00  0.00000000E+00
  0.00000000E+00  0.00000000E+00  0.00000000E+00
  0.00000000E+00  0.00000000E+00  0.00000000E+00
