title                                   
   1.00000000000000     
    -5.3868950368469823    3.3814322691998808    5.3868950368469832
    -3.3814322691998808    5.3868950368469832    5.3868950368469832
    -5.3868950368469823    5.3868950368469823    3.3814322691998813
   Al   Ni
     3     1
Direct
  0.4918038172926890  0.4918038172926890  0.4918038172926890
  0.2500000000000000  0.2500000000000000  0.2500000000000000
  0.0081961827073110  0.0081961827073110  0.0081961827073110
  0.7500000000000000  0.7500000000000000  0.7500000000000000
 
  0.00000000E+00  0.00000000E+00  0.00000000E+00
  0.00000000E+00  0.00000000E+00  0.00000000E+00
  0.00000000E+00  0.00000000E+00  0.00000000E+00
  0.00000000E+00  0.00000000E+00  0.00000000E+00
