title                                   
   1.00000000000000     
     0.0000000000000000   -1.9425038034692237   -1.9425038034692237
    -3.6870561931391985    0.0000000000000000   -0.0000000000000000
     0.0000000000000001    3.9299995093662088   -3.9299995093662088
   Al   Ni
     3     1
Direct
  0.5000000000000000  0.5000000000000000  0.2674313160133276
  0.0000000000000000  0.0000000000000000  0.0000000000000000
  0.5000000000000000  0.5000000000000000  0.7325686839866726
  0.0000000000000000 -0.0000000000000000  0.5000000000000000
 
  0.00000000E+00  0.00000000E+00  0.00000000E+00
  0.00000000E+00  0.00000000E+00  0.00000000E+00
  0.00000000E+00  0.00000000E+00  0.00000000E+00
  0.00000000E+00  0.00000000E+00  0.00000000E+00
