title
1.
0.000000000 -1.760000000 -1.760000000
-3.520000000 0.000000000 0.000000000
0.000000000 3.520000000 -3.520000000
3 1
Cartesian
-1.760000000 0.000000000 -1.760000000    Al
-3.520000000 1.760000000 -5.280000000    Al
-1.760000000 1.760000000 -3.520000000    Al
-3.520000000 0.000000000 -3.520000000    Ni_pv
