title                                   
   1.00000000000000     
     1.7516323571058878   -3.9477005179165969    1.8711482356932638
    -1.7516323571058878    3.9477005179165969    1.8711482356932638
    -3.4842380062564251   -1.9538385670168361   -1.8711482356932638
   Al   Ni
     3     2
Direct
  0.3991876003390189  0.2254522161858858  0.6246398165249047
  0.6000000000000014  0.7999999999999972  0.3999999999999986
  0.8008123996609768  0.3745477838141156  0.1753601834750995
  0.0191047955639476  0.0123129295524151  0.0314177251163628
  0.1808952044360552  0.5876870704475863  0.7685822748836344
 
  0.00000000E+00  0.00000000E+00  0.00000000E+00
  0.00000000E+00  0.00000000E+00  0.00000000E+00
  0.00000000E+00  0.00000000E+00  0.00000000E+00
  0.00000000E+00  0.00000000E+00  0.00000000E+00
  0.00000000E+00  0.00000000E+00  0.00000000E+00
