title                                   
   1.00000000000000     
    -0.0000000000000000   -1.9275959411389811   -1.9275959411389811
    -3.6108282833254886    0.0000000000000000    0.0000000000000000
     0.0000000000000000    3.6138267643372890   -3.6138267643372890
   Al   Ni
     2     2
Direct
  0.5000000000000000  0.5000000000000000  0.2866632973425871
  0.0000000000000000  0.0000000000000000 -0.0366632973425871
  0.5000000000000000  0.5000000000000000  0.7739325889807166
 -0.0000000000000000  0.0000000000000000  0.4760674110192835
 
  0.00000000E+00  0.00000000E+00  0.00000000E+00
  0.00000000E+00  0.00000000E+00  0.00000000E+00
  0.00000000E+00  0.00000000E+00  0.00000000E+00
  0.00000000E+00  0.00000000E+00  0.00000000E+00
