title                                   
   1.00000000000000     
     1.9733686862934063   -1.9733686862934063    0.0000000000000000
    -3.8091558197057420   -3.8091558197057420    0.0000000000000000
     0.0000000000000000    0.0000000000000000   -6.9381183241065036
   Al   Ni
     5     3
Direct
  0.5000000000000000  0.7561255065041309  0.7698126343957165
  0.0000000000000000  0.5000000000000000  0.5000000000000000
  0.5000000000000000  0.7561255065041309  0.2301873656042836
  0.5000000000000000  0.2438744934958691  0.7698126343957165
  0.5000000000000000  0.2438744934958691  0.2301873656042836
  0.0000000000000000  0.5000000000000000 -0.0000000000000000
  0.0000000000000000 -0.0000000000000000  0.5000000000000000
  0.0000000000000000 -0.0000000000000000 -0.0000000000000000
 
  0.00000000E+00  0.00000000E+00  0.00000000E+00
  0.00000000E+00  0.00000000E+00  0.00000000E+00
  0.00000000E+00  0.00000000E+00  0.00000000E+00
  0.00000000E+00  0.00000000E+00  0.00000000E+00
  0.00000000E+00  0.00000000E+00  0.00000000E+00
  0.00000000E+00  0.00000000E+00  0.00000000E+00
  0.00000000E+00  0.00000000E+00  0.00000000E+00
  0.00000000E+00  0.00000000E+00  0.00000000E+00
