title                                   
   1.00000000000000     
    -1.9874666741271800    3.9054027794701938    1.9361683659754616
    -1.9359773623083747   -0.0910018247248211   -5.5677393178105063
    -3.7267647106294306   -3.6533197719376154    3.6008932471325181
   Al   Ni
     8     4
Direct
  0.7390961448616151  0.7793258139822987  0.2570756356506502
  0.1838744069873816  0.5066189770575730  0.1592637757540717
  0.6016842222513064  0.2381371821235438  0.1182608616636756
  0.0428664843508548  0.0028980047474705  0.0085404100525891
  0.7904668489824811  0.4971019952525293  0.8247929232807467
  0.2316491110820296  0.2618628178764563  0.7150724716696601
  0.6494589263459468 -0.0066189770575728  0.6740695575792572
  0.0942371884717209  0.7206741860177013  0.5762576976826856
  0.4166666666666643  0.7500000000000000  0.9166666666666643
  0.5209338478728870  0.5204931181184080  0.4931535690749312
  0.9166666666666643  0.2500000000000000  0.4166666666666643
  0.3123994854604487 -0.0204931181184079  0.3401797642584045
 
  0.00000000E+00  0.00000000E+00  0.00000000E+00
  0.00000000E+00  0.00000000E+00  0.00000000E+00
  0.00000000E+00  0.00000000E+00  0.00000000E+00
  0.00000000E+00  0.00000000E+00  0.00000000E+00
  0.00000000E+00  0.00000000E+00  0.00000000E+00
  0.00000000E+00  0.00000000E+00  0.00000000E+00
  0.00000000E+00  0.00000000E+00  0.00000000E+00
  0.00000000E+00  0.00000000E+00  0.00000000E+00
  0.00000000E+00  0.00000000E+00  0.00000000E+00
  0.00000000E+00  0.00000000E+00  0.00000000E+00
  0.00000000E+00  0.00000000E+00  0.00000000E+00
  0.00000000E+00  0.00000000E+00  0.00000000E+00
