title                                   
   1.00000000000000     
     1.7861124922409397   -3.5616452628889941    1.7675341808162415
    -3.5616452628889941    1.7861124922409397    1.7675341808162415
    -1.7717302598798832   -1.7717302598798832   -3.5312805071168918
   Al   Ni
     1     5
Direct
  0.6666666666666643  0.3333333333333357 -0.0000000000000000
  0.0006557539487066 -0.0006557539487066 -0.0000000000000000
  0.8357172018690938  0.1642827981309063  0.5000000000000000
  0.3326775793846291  0.6673224206153709 -0.0000000000000000
  0.1666666666666643  0.8333333333333357  0.5000000000000000
  0.4976161314642421  0.5023838685357581  0.5000000000000000
 
  0.00000000E+00  0.00000000E+00  0.00000000E+00
  0.00000000E+00  0.00000000E+00  0.00000000E+00
  0.00000000E+00  0.00000000E+00  0.00000000E+00
  0.00000000E+00  0.00000000E+00  0.00000000E+00
  0.00000000E+00  0.00000000E+00  0.00000000E+00
  0.00000000E+00  0.00000000E+00  0.00000000E+00
