title                                   
   1.00000000000000     
     1.8946334745479063    0.0000000000000000   -8.4626471731102182
     1.8946334745479063    0.0000000000000000    8.4626471731102182
     0.0000000000000000   -3.7021524573355591    0.0000000000000000
   Al   Ni
     4     6
Direct
  0.1071604769250450  0.8928395230749548  0.5000000000000000
  0.7999999999999972  0.2000000000000028  0.0000000000000000
  0.2999999999999972  0.7000000000000028  0.5000000000000000
  0.4928395230749564  0.5071604769250437  0.5000000000000000
  0.8947874880654424  0.1052125119345576  0.5000000000000000
  0.0000445063994734 -0.0000445063994734  0.0000000000000000
  0.2027254516561566  0.7972745483438435  0.0000000000000000
  0.3972745483438448  0.6027254516561551  0.0000000000000000
  0.7052125119345590  0.2947874880654410  0.5000000000000000
  0.5999554936005279  0.4000445063994718  0.0000000000000000
 
  0.00000000E+00  0.00000000E+00  0.00000000E+00
  0.00000000E+00  0.00000000E+00  0.00000000E+00
  0.00000000E+00  0.00000000E+00  0.00000000E+00
  0.00000000E+00  0.00000000E+00  0.00000000E+00
  0.00000000E+00  0.00000000E+00  0.00000000E+00
  0.00000000E+00  0.00000000E+00  0.00000000E+00
  0.00000000E+00  0.00000000E+00  0.00000000E+00
  0.00000000E+00  0.00000000E+00  0.00000000E+00
  0.00000000E+00  0.00000000E+00  0.00000000E+00
  0.00000000E+00  0.00000000E+00  0.00000000E+00
