title                                   
   1.00000000000000     
     1.6562046999402233   -3.9505041807984504    1.8833108733238679
    -1.6562046999402233    3.9505041807984504    1.8833108733238679
    -3.1703636669512498   -1.9002572434389615   -1.8833108733238679
   Al   Ni
     2     3
Direct
  0.4082751941776579  0.2102091409843822  0.6184843351620408
  0.5917248058223418  0.7897908590156181  0.3815156648379597
  0.7988035368626596  0.4104360524608356  0.2092395893235022
  0.0000000000000000  0.0000000000000000  0.0000000000000000
  0.2011964631373405  0.5895639475391646  0.7907604106764978
 
  0.00000000E+00  0.00000000E+00  0.00000000E+00
  0.00000000E+00  0.00000000E+00  0.00000000E+00
  0.00000000E+00  0.00000000E+00  0.00000000E+00
  0.00000000E+00  0.00000000E+00  0.00000000E+00
  0.00000000E+00  0.00000000E+00  0.00000000E+00
