title                                   
   1.00000000000000     
    -1.5403097967426915   -1.9523282506407627   -7.9909896140983729
     1.5403097967426915    1.9523282506407627   -7.9909896140983729
     1.5403097967426915   -1.9523282506407627    7.9909896140983729
   Al   Ni
     4     4
Direct
  0.3749465616004320  0.8749465616004319  0.5000000000000000
  0.7552309948843523  0.7552309948843523  0.0000000000000000
  0.6197690051156477  0.1197690051156477  0.5000000000000000
  0.0000534383995679  0.0000534383995679  0.0000000000000000
  0.8770920474629009  0.3770920474629008  0.5000000000000000
  0.2519344938144050  0.2519344938144050  0.0000000000000000
  0.1230655061855951  0.6230655061855950  0.5000000000000000
  0.4979079525370992  0.4979079525370992 -0.0000000000000000
 
  0.00000000E+00  0.00000000E+00  0.00000000E+00
  0.00000000E+00  0.00000000E+00  0.00000000E+00
  0.00000000E+00  0.00000000E+00  0.00000000E+00
  0.00000000E+00  0.00000000E+00  0.00000000E+00
  0.00000000E+00  0.00000000E+00  0.00000000E+00
  0.00000000E+00  0.00000000E+00  0.00000000E+00
  0.00000000E+00  0.00000000E+00  0.00000000E+00
  0.00000000E+00  0.00000000E+00  0.00000000E+00
