title
1.
-1.760000000 0.000000000 8.800000000
1.760000000 0.000000000 8.800000000
0.000000000 1.760000000 -8.800000000
2 3
Cartesian
0.000000000 1.760000000 8.800000000    Al
0.000000000 1.760000000 1.760000000    Al
0.000000000 1.760000000 5.280000000    Ni_pv
0.000000000 1.760000000 -1.760000000    Ni_pv
0.000000000 1.760000000 -5.280000000    Ni_pv
