title                                   
   1.00000000000000     
    -1.9115623810216960   -0.0000000000000000    8.4584450795570572
     1.9115623810216960   -0.0000000000000000    8.4584450795570572
     0.0000000000000000    1.9115623810216960   -8.4584450795570572
   Al   Ni
     2     3
Direct
 -0.0153588445675404 -0.0153588445675404 -0.0000000000000000
  0.6153588445675415  0.6153588445675415  0.0000000000000000
  0.7999999999999972  0.7999999999999972  0.0000000000000000
  0.3945117265073144  0.3945117265073144  0.0000000000000000
  0.2054882734926871  0.2054882734926871 -0.0000000000000000
 
  0.00000000E+00  0.00000000E+00  0.00000000E+00
  0.00000000E+00  0.00000000E+00  0.00000000E+00
  0.00000000E+00  0.00000000E+00  0.00000000E+00
  0.00000000E+00  0.00000000E+00  0.00000000E+00
  0.00000000E+00  0.00000000E+00  0.00000000E+00
