title
1.
-3.520000000 3.520000000 3.520000000
-5.280000000 1.760000000 0.000000000
-1.760000000 -1.760000000 3.520000000
4 4
Cartesian
-3.520000000 1.760000000 1.760000000    Al
-3.520000000 0.000000000 3.520000000    Al
-10.560000000 3.520000000 7.040000000    Al
-8.800000000 3.520000000 5.280000000    Al
-1.760000000 0.000000000 1.760000000    Ni_pv
-7.040000000 3.520000000 3.520000000    Ni_pv
-7.040000000 1.760000000 5.280000000    Ni_pv
-5.280000000 1.760000000 3.520000000    Ni_pv
