title                                   
   1.00000000000000     
    -3.3456231459825201   -3.7326343851958956    0.0000000000000000
    -3.3456231459825201    3.7326343851958956    0.0000000000000000
     0.0000000000000000    0.0000000000000000   -3.7498979067219076
   Al   Ni
     3     5
Direct
  0.7799513325624547  0.2200486674375453  0.5000000000000000
  0.5000000000000000  0.5000000000000000  0.0000000000000000
  0.2200486674375453  0.7799513325624547  0.5000000000000000
  0.7231705320116834  0.7231705320116834  0.5000000000000000
  0.5000000000000000 -0.0000000000000000  0.0000000000000000
  0.2768294679883163  0.2768294679883163  0.5000000000000000
  0.0000000000000000  0.5000000000000000  0.0000000000000000
  0.0000000000000000 -0.0000000000000000  0.0000000000000000
 
  0.00000000E+00  0.00000000E+00  0.00000000E+00
  0.00000000E+00  0.00000000E+00  0.00000000E+00
  0.00000000E+00  0.00000000E+00  0.00000000E+00
  0.00000000E+00  0.00000000E+00  0.00000000E+00
  0.00000000E+00  0.00000000E+00  0.00000000E+00
  0.00000000E+00  0.00000000E+00  0.00000000E+00
  0.00000000E+00  0.00000000E+00  0.00000000E+00
  0.00000000E+00  0.00000000E+00  0.00000000E+00
